<?xml version="1.0"?>
<VTKFile type="UnstructuredGrid"  version="0.1"  >
<UnstructuredGrid>
<Piece  NumberOfPoints="2874" NumberOfCells="10241">
<Points>
<DataArray  type="Float64"  NumberOfComponents="3"  format="ascii">0.0001 0.0001 0  0.0001 0.0001 0.009599999999999999  0.0001 0.0159 0  0.0001 0.0159 0.009599999999999999  0.0799 0.0001 0  0.0799 0.0001 0.009599999999999999  0.0799 0.0159 0  0.0799 0.0159 0.009599999999999999  0.0001 0.00193 0  0.0001 0.003545 0  0.0001 0.00516 0  0.0001 0.007095 0  0.0001 0.008982 0  0.0001 0.010597 0  0.0001 0.012212 0  0.0001 0.013827 0  0.0799 0.0159 0.0064  0.0799 0.0159 0.0032  0.001983 0.0001 0  0.003609 0.0001 0  0.005235 0.0001 0  0.006861 0.0001 0  0.008861000000000001 0.0001 0  0.010704 0.0001 0  0.01233 0.0001 0  0.013956 0.0001 0  0.015911 0.0001 0  0.017799 0.0001 0  0.019425 0.0001 0  0.021051 0.0001 0  0.022676 0.0001 0  0.024672 0.0001 0  0.02652 0.0001 0  0.028146 0.0001 0  0.029771 0.0001 0  0.031918 0.0001 0  0.034224 0.0001 0  0.035864 0.0001 0  0.03749 0.0001 0  0.039261 0.0001 0  0.041316 0.0001 0  0.042959 0.0001 0  0.044585 0.0001 0  0.046311 0.0001 0  0.048366 0.0001 0  0.050054 0.0001 0  0.05168 0.0001 0  0.053404 0.0001 0  0.055459 0.0001 0  0.05745 0.0001 0  0.059075 0.0001 0  0.060701 0.0001 0  0.062551 0.0001 0  0.06501 0.0001 0  0.06679400000000001 0.0001 0  0.06841999999999999 0.0001 0  0.070048 0.0001 0  0.072103 0.0001 0  0.074158 0.0001 0  0.07581499999999999 0.0001 0  0.077484 0.0001 0  0.0001 0.0001 0.002222  0.0001 0.0001 0.004873  0.0001 0.0001 0.007524  0.001976 0.0001 0.009599999999999999  0.003594 0.0001 0.009599999999999999  0.005212 0.0001 0.009599999999999999  0.007111 0.0001 0.009599999999999999  0.009155999999999999 0.0001 0.009599999999999999  0.010958 0.0001 0.009599999999999999  0.012576 0.0001 0.009599999999999999  0.014194 0.0001 0.009599999999999999  0.016421 0.0001 0.009599999999999999  0.018646 0.0001 0.009599999999999999  0.020264 0.0001 0.009599999999999999  0.021882 0.0001 0.009599999999999999  0.023667 0.0001 0.009599999999999999  0.02571 0.0001 0.009599999999999999  0.027328 0.0001 0.009599999999999999  0.028946 0.0001 0.009599999999999999  0.030721 0.0001 0.009599999999999999  0.03317 0.0001 0.009599999999999999  0.035016 0.0001 0.009599999999999999  0.036634 0.0001 0.009599999999999999  0.038252 0.0001 0.009599999999999999  0.040223 0.0001 0.009599999999999999  0.04208 0.0001 0.009599999999999999  0.043698 0.0001 0.009599999999999999  0.045316 0.0001 0.009599999999999999  0.047234 0.0001 0.009599999999999999  0.049279 0.0001 0.009599999999999999  0.051063 0.0001 0.009599999999999999  0.052681 0.0001 0.009599999999999999  0.054299 0.0001 0.009599999999999999  0.056333 0.0001 0.009599999999999999  0.058378 0.0001 0.009599999999999999  0.060045 0.0001 0.009599999999999999  0.061728 0.0001 0.009599999999999999  0.06417299999999999 0.0001 0.009599999999999999  0.06611499999999999 0.0001 0.009599999999999999  0.067733 0.0001 0.009599999999999999  0.069351 0.0001 0.009599999999999999  0.071187 0.0001 0.009599999999999999  0.07317899999999999 0.0001 0.009599999999999999  0.074797 0.0001 0.009599999999999999  0.076415 0.0001 0.009599999999999999  0.07803400000000001 0.0001 0.009599999999999999  0.0001 0.00193 0.009599999999999999  0.0001 0.003545 0.009599999999999999  0.0001 0.00516 0.009599999999999999  0.0001 0.006775 0.009599999999999999  0.0001 0.008750000000000001 0.009599999999999999  0.0001 0.010597 0.009599999999999999  0.0001 0.012212 0.009599999999999999  0.0001 0.013827 0.009599999999999999  0.077583 0.0159 0.009599999999999999  0.07552399999999999 0.0159 0.009599999999999999  0.073465 0.0159 0.009599999999999999  0.071002 0.0159 0.009599999999999999  0.068943 0.0159 0.009599999999999999  0.066884 0.0159 0.009599999999999999  0.064345 0.0159 0.009599999999999999  0.061933 0.0159 0.009599999999999999  0.059874 0.0159 0.009599999999999999  0.057815 0.0159 0.009599999999999999  0.055352 0.0159 0.009599999999999999  0.053293 0.0159 0.009599999999999999  0.051234 0.0159 0.009599999999999999  0.049175 0.0159 0.009599999999999999  0.046712 0.0159 0.009599999999999999  0.044653 0.0159 0.009599999999999999  0.042594 0.0159 0.009599999999999999  0.040068 0.0159 0.009599999999999999  0.037148 0.0159 0.009599999999999999  0.034726 0.0159 0.009599999999999999  0.032462 0.0159 0.009599999999999999  0.030204 0.0159 0.009599999999999999  0.027861 0.0159 0.009599999999999999  0.025253 0.0159 0.009599999999999999  0.02279 0.0159 0.009599999999999999  0.020731 0.0159 0.009599999999999999  0.018672 0.0159 0.009599999999999999  0.016342 0.0159 0.009599999999999999  0.013721 0.0159 0.009599999999999999  0.011662 0.0159 0.009599999999999999  0.009337 0.0159 0.009599999999999999  0.006711 0.0159 0.009599999999999999  0.004652 0.0159 0.009599999999999999  0.002593 0.0159 0.009599999999999999  0.0799 0.013867 0  0.0799 0.012152 0  0.0799 0.010436 0  0.0799 0.008368 0  0.0799 0.005981 0  0.0799 0.004424 0  0.0799 0.002678 0  0.003052 0.0159 0  0.005466 0.0159 0  0.007719 0.0159 0  0.010035 0.0159 0  0.012117 0.0159 0  0.014199 0.0159 0  0.016487 0.0159 0  0.018888 0.0159 0  0.021683 0.0159 0  0.024156 0.0159 0  0.026471 0.0159 0  0.029167 0.0159 0  0.031249 0.0159 0  0.033736 0.0159 0  0.035818 0.0159 0  0.0379 0.0159 0  0.040593 0.0159 0  0.042898 0.0159 0  0.04498 0.0159 0  0.047062 0.0159 0  0.049549 0.0159 0  0.051676 0.0159 0  0.054628 0.0159 0  0.057487 0.0159 0  0.059982 0.0159 0  0.062485 0.0159 0  0.064971 0.0159 0  0.067053 0.0159 0  0.06991600000000001 0.0159 0  0.07231700000000001 0.0159 0  0.074633 0.0159 0  0.07745199999999999 0.0159 0  0.0001 0.0159 0.0032  0.0001 0.0159 0.0064  0.0799 0.013886 0.009599999999999999  0.0799 0.012191 0.009599999999999999  0.0799 0.010495 0.009599999999999999  0.0799 0.008477 0.009599999999999999  0.0799 0.005582 0.009599999999999999  0.0799 0.004063 0.009599999999999999  0.0799 0.002243 0.009599999999999999  0.0799 0.0001 0.00341  0.0799 0.0001 0.006995  0.076 0.0145 0.0113  0.074847 0.014218 0.0113  0.07395 0.013431 0.0113  0.073518 0.012303 0.0113  0.07366 0.011119 0.0113  0.074333 0.010137 0.0113  0.075388 0.009575999999999999 0.0113  0.076581 0.009568 0.0113  0.07765 0.010122 0.0113  0.078336 0.011109 0.0113  0.078483 0.012292 0.0113  0.078065 0.013409 0.0113  0.077186 0.014201 0.0113  0.076 0.0145 0  0.077165 0.014212 0  0.07804899999999999 0.013432 0  0.07847999999999999 0.012316 0  0.078343 0.011129 0  0.077669 0.010139 0  0.07663 0.009580999999999999 0  0.075433 0.009565000000000001 0  0.074369 0.010105 0  0.073675 0.011081 0  0.073514 0.01226 0  0.07393 0.013402 0  0.074818 0.014203 0  0.07049999999999999 0.012 0.009599999999999999  0.070218 0.013154 0.009599999999999999  0.069435 0.014047 0.009599999999999999  0.068318 0.01448 0.009599999999999999  0.067137 0.014347 0.009599999999999999  0.066138 0.013668 0.009599999999999999  0.065577 0.012615 0.009599999999999999  0.065567 0.011424 0.009599999999999999  0.06612700000000001 0.010344 0.009599999999999999  0.06712700000000001 0.009657000000000001 0.009599999999999999  0.06830700000000001 0.009519 0.009599999999999999  0.06941700000000001 0.009939999999999999 0.009599999999999999  0.070203 0.010818 0.009599999999999999  0.0785 0.004 0.009599999999999999  0.078218 0.005153 0.009599999999999999  0.07741000000000001 0.006064 0.009599999999999999  0.07628799999999999 0.006483 0.009599999999999999  0.075111 0.006336 0.009599999999999999  0.074114 0.005641 0.009599999999999999  0.073569 0.004583 0.009599999999999999  0.073574 0.003396 0.009599999999999999  0.074147 0.002321 0.009599999999999999  0.075125 0.001658 0.009599999999999999  0.076336 0.001523 0.009599999999999999  0.077436 0.001954 0.009599999999999999  0.07821500000000001 0.002841 0.009599999999999999  0.0785 0.004 0.0113  0.07821599999999999 0.002843 0.0113  0.077431 0.00195 0.0113  0.076321 0.001521 0.0113  0.075138 0.001653 0.0113  0.074129 0.002341 0.0113  0.073569 0.003415 0.0113  0.073574 0.004605 0.0113  0.074129 0.005658 0.0113  0.07510799999999999 0.006335 0.0113  0.076289 0.006483 0.0113  0.077413 0.006062 0.0113  0.07821699999999999 0.005156 0.0113  0.068 0.0145 0  0.069159 0.014215 0  0.070051 0.01343 0  0.070481 0.012311 0  0.070342 0.011126 0  0.069671 0.010141 0  0.06862799999999999 0.00958 0  0.06743200000000001 0.009565000000000001 0  0.066357 0.010116 0  0.06566900000000001 0.011096 0  0.065516 0.012279 0  0.065931 0.013404 0  0.066813 0.0142 0  0.076 0.0095 0.009599999999999999  0.074849 0.009781 0.009599999999999999  0.07395699999999999 0.01056 0.009599999999999999  0.073521 0.011678 0.009599999999999999  0.073653 0.01286 0.009599999999999999  0.074324 0.013855 0.009599999999999999  0.075382 0.014422 0.009599999999999999  0.076571 0.014434 0.009599999999999999  0.07764799999999999 0.01388 0.009599999999999999  0.07834199999999999 0.012875 0.009599999999999999  0.078482 0.011699 0.009599999999999999  0.07806200000000001 0.010586 0.009599999999999999  0.077184 0.009797999999999999 0.009599999999999999  0.06 0.0145 0.0113  0.061156 0.014217 0.0113  0.06205 0.013431 0.0113  0.062481 0.012309 0.0113  0.062343 0.011127 0.0113  0.061674 0.010143 0.0113  0.060624 0.009579000000000001 0.0113  0.059433 0.009565000000000001 0.0113  0.058347 0.010124 0.0113  0.057659 0.011121 0.0113  0.057519 0.012304 0.0113  0.05794 0.013417 0.0113  0.058815 0.014201 0.0113  0.07049999999999999 0.004 0.0113  0.070215 0.005159 0.0113  0.069422 0.006056 0.0113  0.068301 0.006482 0.0113  0.067117 0.006339 0.0113  0.06612899999999999 0.005658 0.0113  0.06557 0.004586 0.0113  0.06557399999999999 0.003397 0.0113  0.066132 0.002338 0.0113  0.067116 0.001661 0.0113  0.068327 0.001521 0.0113  0.069434 0.001952 0.0113  0.070212 0.002836 0.0113  0.07049999999999999 0.004 0.009599999999999999  0.070215 0.00284 0.009599999999999999  0.069437 0.001955 0.009599999999999999  0.068326 0.001521 0.009599999999999999  0.067139 0.001653 0.009599999999999999  0.06612800000000001 0.002343 0.009599999999999999  0.06557300000000001 0.003398 0.009599999999999999  0.06557 0.004589 0.009599999999999999  0.06612800000000001 0.005657 0.009599999999999999  0.06711399999999999 0.006338 0.009599999999999999  0.068299 0.006482 0.009599999999999999  0.06941700000000001 0.00606 0.009599999999999999  0.070215 0.005159 0.009599999999999999  0.0625 0.012 0.009599999999999999  0.062214 0.010838 0.009599999999999999  0.061424 0.009945000000000001 0.009599999999999999  0.060308 0.009519 0.009599999999999999  0.059098 0.009668 0.009599999999999999  0.05812 0.010352 0.009599999999999999  0.057574 0.011397 0.009599999999999999  0.057578 0.01262 0.009599999999999999  0.05813 0.013659 0.009599999999999999  0.05911 0.014336 0.009599999999999999  0.060292 0.014483 0.009599999999999999  0.061435 0.014047 0.009599999999999999  0.062219 0.013151 0.009599999999999999  0.07049999999999999 0.012 0.0113  0.070213 0.010837 0.0113  0.069427 0.009946999999999999 0.0113  0.068313 0.009520000000000001 0.0113  0.06712799999999999 0.009657000000000001 0.0113  0.066121 0.010351 0.0113  0.06557200000000001 0.011406 0.0113  0.06557399999999999 0.012603 0.0113  0.066133 0.013662 0.0113  0.06713 0.014344 0.0113  0.068315 0.01448 0.0113  0.069436 0.014047 0.0113  0.070219 0.013152 0.0113  0.06 0.0145 0  0.061156 0.014217 0  0.06205 0.013431 0  0.062481 0.012309 0  0.062343 0.011127 0  0.061674 0.010143 0  0.060624 0.009579000000000001 0  0.059433 0.009565000000000001 0  0.058347 0.010124 0  0.057659 0.011121 0  0.057519 0.012304 0  0.05794 0.013417 0  0.058815 0.014201 0  0.0545 0.012 0.0113  0.054207 0.010825 0.0113  0.053414 0.009938000000000001 0.0113  0.052305 0.009519 0.0113  0.051098 0.009668 0.0113  0.050126 0.010345 0.0113  0.049574 0.011394 0.0113  0.049576 0.012611 0.0113  0.050127 0.013656 0.0113  0.051093 0.01433 0.0113  0.052268 0.014486 0.0113  0.053409 0.014065 0.0113  0.054209 0.01317 0.0113  0.0545 0.012 0.009599999999999999  0.054209 0.01317 0.009599999999999999  0.053408 0.014065 0.009599999999999999  0.052299 0.014482 0.009599999999999999  0.051092 0.014329 0.009599999999999999  0.050128 0.013657 0.009599999999999999  0.049575 0.012608 0.009599999999999999  0.049567 0.011425 0.009599999999999999  0.050122 0.010349 0.009599999999999999  0.051097 0.009669000000000001 0.009599999999999999  0.052272 0.009514999999999999 0.009599999999999999  0.053413 0.009937 0.009599999999999999  0.054207 0.010825 0.009599999999999999  0.07049999999999999 0.004 0  0.070215 0.00284 0  0.069437 0.001955 0  0.068326 0.001521 0  0.067139 0.001653 0  0.06612800000000001 0.002343 0  0.06557300000000001 0.003398 0  0.06557 0.004589 0  0.06612800000000001 0.005657 0  0.06711399999999999 0.006338 0  0.068299 0.006482 0  0.06941700000000001 0.00606 0  0.070215 0.005159 0  0.044 0.0145 0.0113  0.045155 0.014217 0.0113  0.046043 0.013441 0.0113  0.046477 0.012335 0.0113  0.046352 0.011153 0.0113  0.045687 0.010155 0.0113  0.044639 0.009583 0.0113  0.043429 0.009566 0.0113  0.042357 0.010116 0.0113  0.04167 0.011093 0.0113  0.041517 0.012293 0.0113  0.041931 0.013403 0.0113  0.042817 0.014202 0.0113  0.06 0.0065 0.0113  0.061153 0.006218 0.0113  0.062052 0.005428 0.0113  0.062483 0.00429 0.0113  0.062337 0.003112 0.0113  0.06167 0.002139 0.0113  0.060632 0.001581 0.0113  0.059446 0.001562 0.0113  0.05836 0.002113 0.0113  0.057669 0.003097 0.0113  0.057515 0.004274 0.0113  0.057939 0.005415 0.0113  0.058819 0.006203 0.0113  0.0465 0.012 0.009599999999999999  0.046215 0.01084 0.009599999999999999  0.045424 0.009945000000000001 0.009599999999999999  0.044314 0.009520000000000001 0.009599999999999999  0.043102 0.009667 0.009599999999999999  0.042115 0.010358 0.009599999999999999  0.041571 0.011409 0.009599999999999999  0.04158 0.012629 0.009599999999999999  0.042141 0.013672 0.009599999999999999  0.043124 0.014341 0.009599999999999999  0.04431 0.014481 0.009599999999999999  0.045429 0.014051 0.009599999999999999  0.046221 0.013149 0.009599999999999999  0.076 0.0015 0  0.07716000000000001 0.001785 0  0.078055 0.002577 0  0.078484 0.00372 0  0.078333 0.004899 0  0.077637 0.00589 0  0.076572 0.006434 0  0.075378 0.006421 0  0.07432999999999999 0.00586 0  0.073661 0.004882 0  0.073519 0.003696 0  0.073937 0.002589 0  0.074823 0.001795 0  0.06 0.0015 0.009599999999999999  0.061159 0.001785 0.009599999999999999  0.062054 0.002575 0.009599999999999999  0.062484 0.003716 0.009599999999999999  0.062332 0.004901 0.009599999999999999  0.061649 0.005879 0.009599999999999999  0.060589 0.00643 0.009599999999999999  0.059395 0.006426 0.009599999999999999  0.058328 0.005858 0.009599999999999999  0.057658 0.004876 0.009599999999999999  0.05752 0.003685 0.009599999999999999  0.057945 0.002576 0.009599999999999999  0.058835 0.001788 0.009599999999999999  0.0625 0.004 0  0.062211 0.002834 0  0.06143 0.001949 0  0.060313 0.00152 0  0.059105 0.001666 0  0.058116 0.002357 0  0.05757 0.003412 0  0.057573 0.004601 0  0.058128 0.005657 0  0.059105 0.006334 0  0.060287 0.006484 0  0.06143 0.006051 0  0.062218 0.005153 0  0.052 0.0145 0  0.053156 0.014217 0  0.05405 0.013431 0  0.054479 0.012321 0  0.054337 0.011113 0  0.053659 0.010129 0  0.05259 0.009571 0  0.0514 0.009573 0  0.050322 0.010147 0  0.04965 0.011148 0  0.049522 0.012331 0  0.049953 0.013435 0  0.050843 0.014216 0  0.036 0.0145 0.009599999999999999  0.037159 0.014215 0.009599999999999999  0.038044 0.013439 0.009599999999999999  0.038478 0.01233 0.009599999999999999  0.038349 0.011144 0.009599999999999999  0.037669 0.010139 0.009599999999999999  0.036617 0.009577 0.009599999999999999  0.035393 0.009575 0.009599999999999999  0.034338 0.010133 0.009599999999999999  0.03366 0.011119 0.009599999999999999  0.033518 0.012303 0.009599999999999999  0.033944 0.013423 0.009599999999999999  0.034842 0.014216 0.009599999999999999  0.0495 0.004 0.0113  0.049781 0.005151 0.0113  0.050587 0.006062 0.0113  0.051712 0.006483 0.0113  0.052918 0.006325 0.0113  0.053881 0.005647 0.0113  0.054427 0.004598 0.0113  0.054423 0.003386 0.0113  0.053865 0.002335 0.0113  0.052884 0.001661 0.0113  0.051675 0.001521 0.0113  0.05057 0.00195 0.0113  0.049784 0.002843 0.0113  0.044 0.0065 0.0113  0.042844 0.006217 0.0113  0.041935 0.005409 0.0113  0.041517 0.004289 0.0113  0.041674 0.003083 0.0113  0.042358 0.002115 0.0113  0.043415 0.001569 0.0113  0.0446 0.001573 0.0113  0.045674 0.002143 0.0113  0.046343 0.003128 0.0113  0.046481 0.004305 0.0113  0.046044 0.00544 0.0113  0.045161 0.006214 0.0113  0.052 0.0015 0.009599999999999999  0.053158 0.001785 0.009599999999999999  0.054065 0.002591 0.009599999999999999  0.054483 0.003709 0.009599999999999999  0.05433 0.004905 0.009599999999999999  0.053654 0.005875 0.009599999999999999  0.052594 0.006428 0.009599999999999999  0.051401 0.006427 0.009599999999999999  0.050328 0.005859 0.009599999999999999  0.049661 0.004882 0.009599999999999999  0.049519 0.003693 0.009599999999999999  0.049941 0.002583 0.009599999999999999  0.050841 0.001785 0.009599999999999999  0.0545 0.004 0  0.054217 0.002844 0  0.053405 0.001932 0  0.052291 0.001517 0  0.05108 0.001675 0  0.050103 0.002372 0  0.049566 0.00343 0  0.049578 0.004618 0  0.050132 0.005661 0  0.051105 0.006334 0  0.052285 0.006484 0  0.053423 0.006056 0  0.054214 0.005161 0  0.036 0.0095 0.0113  0.034843 0.009783999999999999 0.0113  0.033949 0.01057 0.0113  0.033519 0.011692 0.0113  0.033658 0.012874 0.0113  0.034329 0.013859 0.0113  0.035389 0.014424 0.0113  0.03658 0.014432 0.0113  0.037659 0.01387 0.0113  0.038337 0.012889 0.0113  0.038479 0.011676 0.0113  0.038048 0.010566 0.0113  0.037162 0.009787000000000001 0.0113  0.028 0.0145 0.009599999999999999  0.026842 0.014216 0.009599999999999999  0.025947 0.013427 0.009599999999999999  0.025518 0.012303 0.009599999999999999  0.02566 0.011119 0.009599999999999999  0.026333 0.010137 0.009599999999999999  0.027378 0.009579000000000001 0.009599999999999999  0.028573 0.009567000000000001 0.009599999999999999  0.029646 0.010119 0.009599999999999999  0.030332 0.011099 0.009599999999999999  0.030484 0.012282 0.009599999999999999  0.030068 0.013405 0.009599999999999999  0.029186 0.014201 0.009599999999999999  0.028 0.0145 0.0113  0.029164 0.014212 0.0113  0.030054 0.013425 0.0113  0.030481 0.012309 0.0113  0.030341 0.011124 0.0113  0.02967 0.010139 0.0113  0.02863 0.009580999999999999 0.0113  0.027405 0.009572000000000001 0.0113  0.026353 0.010119 0.0113  0.025667 0.011101 0.0113  0.025516 0.01228 0.0113  0.025935 0.013408 0.0113  0.026819 0.014203 0.0113  0.044 0.0065 0.009599999999999999  0.04285 0.00622 0.009599999999999999  0.041953 0.005435 0.009599999999999999  0.04152 0.004318 0.009599999999999999  0.041665 0.003108 0.009599999999999999  0.04234 0.00213 0.009599999999999999  0.043396 0.001574 0.009599999999999999  0.044583 0.001569 0.009599999999999999  0.045664 0.002134 0.009599999999999999  0.046339 0.003117 0.009599999999999999  0.046482 0.004296 0.009599999999999999  0.046047 0.005435 0.009599999999999999  0.045163 0.006213 0.009599999999999999  0.0385 0.004 0.0113  0.038219 0.005152 0.0113  0.037412 0.006063 0.0113  0.036291 0.006483 0.0113  0.035114 0.006338 0.0113  0.034117 0.005644 0.0113  0.033571 0.004593 0.0113  0.033571 0.003407 0.0113  0.034139 0.00233 0.0113  0.035118 0.001661 0.0113  0.036328 0.001522 0.0113  0.037433 0.001952 0.0113  0.038216 0.002842 0.0113  0.0465 0.004 0  0.046217 0.002845 0  0.045421 0.001943 0  0.044317 0.00152 0  0.043106 0.001665 0  0.042126 0.002346 0  0.041574 0.003396 0  0.041576 0.004612 0  0.042129 0.005658 0  0.043101 0.006333 0  0.044281 0.006484 0  0.045408 0.006066 0  0.046218 0.005154 0  0.0465 0.012 0  0.046215 0.01084 0  0.045424 0.009945000000000001 0  0.044314 0.009520000000000001 0  0.043102 0.009667 0  0.042115 0.010358 0  0.041571 0.011409 0  0.04158 0.012629 0  0.042141 0.013672 0  0.043124 0.014341 0  0.04431 0.014481 0  0.045429 0.014051 0  0.046221 0.013149 0  0.028 0.0145 0  0.026842 0.014216 0  0.025947 0.013427 0  0.025518 0.012303 0  0.02566 0.011119 0  0.026333 0.010137 0  0.027378 0.009579000000000001 0  0.028573 0.009567000000000001 0  0.029646 0.010119 0  0.030332 0.011099 0  0.030484 0.012282 0  0.030068 0.013405 0  0.029186 0.014201 0  0.0385 0.004 0.009599999999999999  0.038216 0.002843 0.009599999999999999  0.037425 0.001946 0.009599999999999999  0.036319 0.00152 0.009599999999999999  0.035135 0.001654 0.009599999999999999  0.034127 0.002345 0.009599999999999999  0.033569 0.003415 0.009599999999999999  0.033574 0.004606 0.009599999999999999  0.034126 0.005655 0.009599999999999999  0.035097 0.006331 0.009599999999999999  0.036281 0.006484 0.009599999999999999  0.037408 0.006066 0.009599999999999999  0.038216 0.005157 0.009599999999999999  0.0335 0.012 0  0.033786 0.010839 0  0.034574 0.009946 0  0.03569 0.009519 0  0.036899 0.009667 0  0.037878 0.010349 0  0.038426 0.011398 0  0.038422 0.01262 0  0.037871 0.013658 0  0.036892 0.014335 0  0.035711 0.014483 0  0.034568 0.014049 0  0.03378 0.01315 0  0.0305 0.004 0.0113  0.030217 0.005155 0.0113  0.029419 0.006058 0.0113  0.028301 0.006482 0.0113  0.027121 0.00634 0.0113  0.026136 0.005665 0.0113  0.025574 0.004603 0.0113  0.02557 0.003413 0.0113  0.026138 0.002332 0.0113  0.02712 0.00166 0.0113  0.028327 0.001522 0.0113  0.029436 0.001954 0.0113  0.030214 0.002839 0.0113  0.0385 0.004 0  0.038216 0.002843 0  0.037425 0.001946 0  0.036319 0.00152 0  0.035135 0.001654 0  0.034127 0.002345 0  0.033569 0.003415 0  0.033574 0.004606 0  0.034126 0.005655 0  0.035097 0.006331 0  0.036281 0.006484 0  0.037408 0.006066 0  0.038216 0.005157 0  0.02 0.0095 0.0113  0.01884 0.009786 0.0113  0.017954 0.010564 0.0113  0.017522 0.011668 0.0113  0.017649 0.012851 0.0113  0.018329 0.013859 0.0113  0.019395 0.014426 0.0113  0.020588 0.01443 0.0113  0.021653 0.013876 0.0113  0.022338 0.012884 0.0113  0.022483 0.011708 0.0113  0.022064 0.010589 0.0113  0.021178 0.009795 0.0113  0.02 0.0095 0.009599999999999999  0.021155 0.009783 0.009599999999999999  0.022046 0.010563 0.009599999999999999  0.02248 0.011682 0.009599999999999999  0.022346 0.012864 0.009599999999999999  0.021674 0.013857 0.009599999999999999  0.020616 0.014423 0.009599999999999999  0.019426 0.014433 0.009599999999999999  0.018351 0.013879 0.009599999999999999  0.017658 0.012874 0.009599999999999999  0.017518 0.011698 0.009599999999999999  0.017939 0.010586 0.009599999999999999  0.018816 0.009797999999999999 0.009599999999999999  0.02 0.0145 0  0.021158 0.014216 0  0.022052 0.013428 0  0.022482 0.012299 0  0.022338 0.011116 0  0.021664 0.010135 0  0.020609 0.009575 0  0.019417 0.009568999999999999 0  0.018348 0.010123 0  0.017664 0.01111 0  0.017517 0.012294 0  0.017935 0.01341 0  0.018814 0.014201 0  0.0255 0.004 0.009599999999999999  0.025785 0.005159 0.009599999999999999  0.026578 0.006056 0.009599999999999999  0.027699 0.006482 0.009599999999999999  0.028883 0.006339 0.009599999999999999  0.029871 0.005658 0.009599999999999999  0.030429 0.004592 0.009599999999999999  0.030427 0.003402 0.009599999999999999  0.029871 0.002342 0.009599999999999999  0.028884 0.001661 0.009599999999999999  0.027673 0.001521 0.009599999999999999  0.026566 0.001952 0.009599999999999999  0.025788 0.002836 0.009599999999999999  0.02 0.0065 0.009599999999999999  0.021154 0.006218 0.009599999999999999  0.02205 0.005431 0.009599999999999999  0.02248 0.004319 0.009599999999999999  0.022337 0.003112 0.009599999999999999  0.021669 0.002139 0.009599999999999999  0.02063 0.001581 0.009599999999999999  0.019443 0.001563 0.009599999999999999  0.018363 0.002111 0.009599999999999999  0.017673 0.003087 0.009599999999999999  0.017514 0.004265 0.009599999999999999  0.017935 0.005409 0.009599999999999999  0.018818 0.006203 0.009599999999999999  0.0305 0.004 0  0.030216 0.002843 0  0.029435 0.001953 0  0.028326 0.001521 0  0.027148 0.00165 0  0.026136 0.002333 0  0.025569 0.003415 0  0.025574 0.004605 0  0.026136 0.005666 0  0.027123 0.006341 0  0.0283 0.006482 0  0.029418 0.006059 0  0.030217 0.005156 0  0.012 0.0095 0.0113  0.01085 0.00978 0.0113  0.009956 0.010561 0.0113  0.009523 0.011662 0.0113  0.009646999999999999 0.012844 0.0113  0.010326 0.013857 0.0113  0.011403 0.014428 0.0113  0.012591 0.014429 0.0113  0.01365 0.013878 0.0113  0.014331 0.012902 0.0113  0.014485 0.011726 0.0113  0.014075 0.010605 0.0113  0.013182 0.009797 0.0113  0.012 0.0095 0.009599999999999999  0.013159 0.009785 0.009599999999999999  0.014063 0.010588 0.009599999999999999  0.014483 0.011707 0.009599999999999999  0.014338 0.012886 0.009599999999999999  0.013661 0.013869 0.009599999999999999  0.012597 0.014428 0.009599999999999999  0.011403 0.014428 0.009599999999999999  0.010325 0.013856 0.009599999999999999  0.009655 0.012868 0.009599999999999999  0.009520000000000001 0.011681 0.009599999999999999  0.009951 0.010567 0.009599999999999999  0.010839 0.009786 0.009599999999999999  0.0175 0.004 0.0113  0.017785 0.005158 0.0113  0.01859 0.006065 0.0113  0.019714 0.006484 0.0113  0.020895 0.006334 0.0113  0.021875 0.005654 0.0113  0.02243 0.004589 0.0113  0.022426 0.003396 0.0113  0.021852 0.002321 0.0113  0.020868 0.001655 0.0113  0.019682 0.00152 0.0113  0.018574 0.001947 0.0113  0.017788 0.002836 0.0113  0.0145 0.012 0  0.014204 0.01318 0  0.013409 0.014065 0  0.012299 0.014482 0  0.011093 0.01433 0  0.010129 0.013658 0  0.009577 0.012616 0  0.009566 0.011431 0  0.010118 0.010354 0  0.011093 0.00967 0  0.012268 0.009514 0  0.013409 0.009934999999999999 0  0.014204 0.01082 0  0.012 0.0065 0.0113  0.01084 0.006215 0.0113  0.009932 0.005405 0.0113  0.009518 0.004297 0.0113  0.00967 0.003095 0.0113  0.010356 0.002117 0.0113  0.01141 0.001571 0.0113  0.012623 0.001579 0.0113  0.013665 0.002135 0.0113  0.014336 0.00311 0.0113  0.014484 0.004285 0.0113  0.014059 0.005418 0.0113  0.01317 0.006209 0.0113  0.012 0.0065 0.009599999999999999  0.013142 0.006224 0.009599999999999999  0.014043 0.005441 0.009599999999999999  0.014481 0.004306 0.009599999999999999  0.014342 0.003125 0.009599999999999999  0.013676 0.002145 0.009599999999999999  0.012629 0.00158 0.009599999999999999  0.011439 0.001564 0.009599999999999999  0.010352 0.00212 0.009599999999999999  0.009665999999999999 0.003105 0.009599999999999999  0.009516 0.004285 0.009599999999999999  0.009946999999999999 0.005427 0.009599999999999999  0.010835 0.006212 0.009599999999999999  0.02 0.0065 0  0.018839 0.006214 0  0.017949 0.00543 0  0.017517 0.004287 0  0.017665 0.003106 0  0.018345 0.002126 0  0.01939 0.001576 0  0.020583 0.001569 0  0.021631 0.002106 0  0.022322 0.003073 0  0.022487 0.004252 0  0.022071 0.005401 0  0.021178 0.006205 0  0.004 0.0095 0.009599999999999999  0.002846 0.009782000000000001 0.009599999999999999  0.001944 0.010578 0.009599999999999999  0.00152 0.011687 0.009599999999999999  0.001657 0.012873 0.009599999999999999  0.002343 0.013872 0.009599999999999999  0.003406 0.014428 0.009599999999999999  0.004599 0.014427 0.009599999999999999  0.005657 0.013872 0.009599999999999999  0.006334 0.012896 0.009599999999999999  0.00648 0.011682 0.009599999999999999  0.006053 0.010574 0.009599999999999999  0.005155 0.009783 0.009599999999999999  0.004 0.0145 0  0.002845 0.014217 0  0.001951 0.013433 0  0.00152 0.012319 0  0.001655 0.011133 0  0.002333 0.010137 0  0.003403 0.009572000000000001 0  0.004597 0.009572000000000001 0  0.005667 0.010137 0  0.006345 0.011133 0  0.00648 0.012319 0  0.006052 0.013429 0  0.005156 0.014217 0  0.004 0.0145 0.0113  0.005155 0.014217 0.0113  0.006049 0.013433 0.0113  0.00648 0.012319 0.0113  0.006345 0.011133 0.0113  0.005667 0.010137 0.0113  0.004597 0.009572000000000001 0.0113  0.003403 0.009572000000000001 0.0113  0.002333 0.010137 0.0113  0.001655 0.011133 0.0113  0.00152 0.012319 0.0113  0.001948 0.013429 0.0113  0.002844 0.014217 0.0113  0.012 0.0065 0  0.013153 0.006218 0  0.014064 0.005411 0  0.014485 0.004274 0  0.014331 0.003097 0  0.013656 0.002127 0  0.012606 0.001575 0  0.01142 0.001568 0  0.01034 0.002131 0  0.009660999999999999 0.003117 0  0.009516999999999999 0.004295 0  0.009951 0.005433 0  0.010838 0.006213 0  0.0065 0.004 0.009599999999999999  0.006218 0.005154 0.009599999999999999  0.005409 0.006065 0.009599999999999999  0.004275 0.006485 0.009599999999999999  0.003068 0.00632 0.009599999999999999  0.002108 0.005634 0.009599999999999999  0.001568 0.004578 0.009599999999999999  0.001574 0.003394 0.009599999999999999  0.00213 0.00234 0.009599999999999999  0.003112 0.001663 0.009599999999999999  0.004292 0.001517 0.009599999999999999  0.005431 0.00195 0.009599999999999999  0.006215 0.00284 0.009599999999999999  0.0015 0.004 0.0113  0.001785 0.00284 0.0113  0.002579 0.001943 0.0113  0.003695 0.001519 0.0113  0.00491 0.001672 0.0113  0.00589 0.002363 0.0113  0.006433 0.003423 0.0113  0.006423 0.004615 0.0113  0.005865 0.005664 0.0113  0.004891 0.006336 0.0113  0.003705 0.006483 0.0113  0.002571 0.006051 0.0113  0.00178 0.005151 0.0113  0.004 0.0065 0  0.002839 0.006214 0  0.001929 0.0054 0  0.001516 0.004286 0  0.001664 0.003108 0  0.002345 0.002126 0  0.003405 0.001572 0  0.004595 0.001572 0  0.005654 0.002126 0  0.006335 0.003108 0  0.006483 0.004289 0  0.00605 0.005431 0  0.005161 0.006214 0  0.001433 0.00813 0  0.007718 0.001661 0  0.016685 0.002075 0  0.023767 0.001438 0  0.032914 0.001366 0  0.038686 0.001559 0  0.040182 0.001432 0  0.047335 0.001662 0  0.05645 0.001213 0  0.07127699999999999 0.001791 0  0.008862 0.013959 0  0.015285 0.014266 0  0.0231 0.014411 0  0.071699 0.014097 0  0.076323 0.013386 0  0.077248 0.012758 0  0.07735400000000001 0.0115 0  0.07713 0.008684000000000001 0  0.076344 0.010658 0  0.075721 0.008581999999999999 0  0.074445 0.009023 0  0.075112 0.010979 0  0.073381 0.009972999999999999 0  0.072676 0.011261 0  0.074613 0.012143 0  0.07255499999999999 0.012892 0  0.073354 0.014501 0  0.07524500000000001 0.013217 0  0.068319 0.013388 0  0.069235 0.012741 0  0.07130499999999999 0.012885 0  0.07148400000000001 0.011433 0  0.069301 0.011526 0  0.070829 0.009662 0  0.069591 0.008876999999999999 0  0.06832000000000001 0.010677 0  0.068138 0.008274 0  0.066361 0.008746 0  0.067091 0.010997 0  0.065124 0.010015 0  0.064636 0.011474 0  0.06661 0.012138 0  0.064598 0.013112 0  0.065529 0.014571 0  0.067242 0.013216 0  0.060327 0.013361 0  0.06257500000000001 0.014375 0  0.061254 0.012753 0  0.06327000000000001 0.01331 0  0.063516 0.011926 0  0.061291 0.011542 0  0.062764 0.009565000000000001 0  0.061584 0.008862 0  0.060343 0.010695 0  0.060144 0.008534999999999999 0  0.058434 0.008709 0  0.059095 0.011013 0  0.057227 0.009915 0  0.056513 0.01148 0  0.058598 0.012166 0  0.056592 0.013175 0  0.056887 0.014557 0  0.059216 0.013237 0  0.07144300000000001 0.00343 0  0.06937699999999999 0.003673 0  0.068827 0.002779 0  0.067528 0.002651 0  0.064899 0.002571 0  0.066675 0.003673 0  0.064551 0.00393 0  0.064569 0.005358 0  0.066986 0.004926 0  0.065946 0.007245 0  0.067233 0.007454 0  0.068176 0.00538 0  0.06937699999999999 0.007338 0  0.07053 0.006367 0  0.06926400000000001 0.004738 0  0.07138600000000001 0.005059 0  0.076372 0.002596 0  0.077274 0.003225 0  0.077365 0.004499 0  0.07635 0.005341 0  0.077504 0.007351 0  0.076145 0.007487 0  0.075068 0.00507 0  0.074626 0.007536 0  0.072792 0.005674 0  0.074638 0.003881 0  0.07253 0.004279 0  0.072643 0.002818 0  0.075306 0.00271 0  0.073143 0.001489 0  0.063481 0.003104 0  0.061339 0.003678 0  0.06272999999999999 0.00189 0  0.060749 0.002774 0  0.059504 0.00271 0  0.056693 0.002534 0  0.05864 0.003672 0  0.056469 0.004264 0  0.057077 0.005762 0  0.058986 0.004912 0  0.057879 0.007058 0  0.059509 0.007459 0  0.060178 0.005396 0  0.061248 0.007425 0  0.06293899999999999 0.006239 0  0.061247 0.004764 0  0.063404 0.004687 0  0.052328 0.013383 0  0.055087 0.01422 0  0.05328 0.012818 0  0.055427 0.012748 0  0.055368 0.011226 0  0.053367 0.01151 0  0.05472 0.009875999999999999 0  0.053652 0.008951000000000001 0  0.052316 0.010692 0  0.052148 0.008555999999999999 0  0.050349 0.008758 0  0.051077 0.01103 0  0.048824 0.010118 0  0.048538 0.011776 0  0.050593 0.012188 0  0.048767 0.013225 0  0.049437 0.014392 0  0.051219 0.013255 0  0.055457 0.003307 0  0.053411 0.003663 0  0.055024 0.001744 0  0.052748 0.002762 0  0.051444 0.002712 0  0.048749 0.002642 0  0.050604 0.003666 0  0.04853 0.003973 0  0.048632 0.005404 0  0.050966 0.004939 0  0.050044 0.00722 0  0.051552 0.007453 0  0.05219 0.005404 0  0.053305 0.007447 0  0.054792 0.006385 0  0.053263 0.004774 0  0.055285 0.004802 0  0.047458 0.003272 0  0.04535 0.003674 0  0.044775 0.002777 0  0.043498 0.002735 0  0.040865 0.002541 0  0.042621 0.003657 0  0.040522 0.003983 0  0.040707 0.005735 0  0.042939 0.004945 0  0.042119 0.007335 0  0.043888 0.007894999999999999 0  0.044188 0.005398 0  0.045457 0.007272 0  0.046962 0.006261 0  0.045277 0.004785 0  0.047414 0.004715 0  0.047469 0.011136 0  0.045544 0.011573 0  0.047001 0.009579000000000001 0  0.044879 0.010665 0  0.045485 0.008706999999999999 0  0.043536 0.01076 0  0.041479 0.008952 0  0.040646 0.010363 0  0.042543 0.011696 0  0.039912 0.011759 0  0.040712 0.014119 0  0.042852 0.013046 0  0.041916 0.014859 0  0.044115 0.013424 0  0.046857 0.014135 0  0.045171 0.012676 0  0.047517 0.012836 0  0.027686 0.013384 0  0.026767 0.012737 0  0.024507 0.013082 0  0.026702 0.011521 0  0.024537 0.011327 0  0.02494 0.009741 0  0.027684 0.010675 0  0.026442 0.008687 0  0.0281 0.008541 0  0.028914 0.011001 0  0.029661 0.008869999999999999 0  0.030788 0.009809999999999999 0  0.029392 0.012153 0  0.031462 0.0114 0  0.031347 0.013144 0  0.028772 0.01321 0  0.030605 0.014548 0  0.034625 0.01166 0  0.03269 0.011033 0  0.035236 0.010767 0  0.033485 0.009690000000000001 0  0.034718 0.008638 0  0.036477 0.010698 0  0.036403 0.008536999999999999 0  0.038053 0.009009 0  0.03736 0.011676 0  0.039157 0.010333 0  0.03707 0.012963 0  0.039534 0.013264 0  0.038855 0.01465 0  0.035822 0.01338 0  0.034768 0.012733 0  0.032602 0.014252 0  0.032522 0.012548 0  0.039502 0.002993 0  0.037389 0.00367 0  0.036797 0.002757 0  0.035518 0.002686 0  0.034672 0.003645 0  0.032516 0.004071 0  0.032707 0.005411 0  0.034949 0.00494 0  0.03427 0.007232 0  0.035667 0.007472 0  0.036197 0.005391 0  0.037332 0.007399 0  0.038951 0.006255 0  0.037291 0.004767 0  0.039458 0.004752 0  0.020298 0.013391 0  0.021233 0.01276 0  0.023167 0.01307 0  0.023445 0.011794 0  0.021302 0.011499 0  0.023221 0.010121 0  0.021774 0.008755000000000001 0  0.020314 0.010659 0  0.020043 0.008522 0  0.018371 0.008689000000000001 0  0.019075 0.011004 0  0.017215 0.009897 0  0.016494 0.011403 0  0.018579 0.01216 0  0.016643 0.013158 0  0.017375 0.014554 0  0.019194 0.013241 0  0.031413 0.003362 0  0.029347 0.003661 0  0.031066 0.001727 0  0.02878 0.002767 0  0.027514 0.002683 0  0.024783 0.00259 0  0.026666 0.003641 0  0.024537 0.00414 0  0.024844 0.005651 0  0.026936 0.004938 0  0.025874 0.00701 0  0.027473 0.007463 0  0.028151 0.005377 0  0.029254 0.007425 0  0.030538 0.006371 0  0.029241 0.004758 0  0.031381 0.004945 0  0.013416 0.012315 0  0.015478 0.012561 0  0.012747 0.013208 0  0.011503 0.013287 0  0.010682 0.012325 0  0.008499 0.012268 0  0.010979 0.01108 0  0.008715000000000001 0.010518 0  0.009861999999999999 0.009233999999999999 0  0.012186 0.010647 0  0.011426 0.008503999999999999 0  0.013424 0.008562 0  0.013274 0.011269 0  0.014584 0.009717999999999999 0  0.015292 0.011022 0  0.019641 0.005381 0  0.019274 0.00742 0  0.018737 0.004737 0  0.01774 0.00685 0  0.016796 0.005395 0  0.018679 0.003484 0  0.016524 0.00383 0  0.019638 0.002631 0  0.020912 0.002947 0  0.022691 0.00215 0  0.021373 0.004082 0  0.023495 0.003324 0  0.023449 0.005264 0  0.020734 0.005276 0  0.022418 0.006845 0  0.02081 0.00742 0  0.003685 0.013395 0  0.002724 0.012776 0  0.001592 0.01477 0  0.002634 0.011498 0  0.003685 0.010683 0  0.002518 0.008879 0  0.003914 0.008532 0  0.004926 0.011017 0  0.005358 0.008581 0  0.007172 0.010144 0  0.005414 0.012176 0  0.007476 0.011627 0  0.00742 0.013403 0  0.004789 0.013249 0  0.006443 0.014677 0  0.012618 0.007428 0  0.01229 0.005242 0  0.014252 0.006949 0  0.013364 0.004783 0  0.015462 0.005104 0  0.015449 0.003307 0  0.013444 0.003492 0  0.014886 0.001697 0  0.013502 0.00108 0  0.012303 0.002728 0  0.010989 0.002987 0  0.009028 0.002111 0  0.008508999999999999 0.003579 0  0.010466 0.004188 0  0.008777 0.00543 0  0.009684999999999999 0.006579 0  0.011177 0.005288 0  0.011037 0.007292 0  0.00368 0.00545 0  0.002975 0.007465 0  0.002768 0.004774 0  0.001597 0.006659 0  0.002867 0.003522 0  0.003623 0.002446 0  0.004724 0.003095 0  0.006696 0.00222 0  0.005402 0.00422 0  0.007347 0.00335 0  0.00741 0.005227 0  0.004765 0.005335 0  0.006287 0.006959 0  0.004664 0.00742 0  0.025521 0.001306 0  0.049377 0.001322 0  0.065692 0.001307 0  0.001308 0.009664000000000001 0  0.041786 0.001316 0  0.025249 0.014528 0  0.07858900000000001 0.009113 0  0.006117 0.001163 0  0.022032 0.001137 0  0.057859 0.00131 0  0.064151 0.001474 0  0.078696 0.006822 0  0.078467 0.0147 0  0.070547 0.014719 0  0.063974 0.014577 0  0.028054 0.003983 0  0.036081 0.00399 0  0.044056 0.004008 0  0.052001 0.004039 0  0.043766 0.012286 0  0.075965 0.012054 0  0.07327500000000001 0.008630000000000001 0  0.06797400000000001 0.012066 0  0.07066699999999999 0.007924 0  0.060009 0.01208 0  0.056798 0.008519000000000001 0  0.068129 0.004017 0  0.071704 0.006689 0  0.076072 0.003949 0  0.060057 0.003995 0  0.064556 0.006813 0  0.056278 0.006979 0  0.051963 0.012084 0  0.048695 0.008512 0  0.048636 0.006785 0  0.035885 0.011975 0  0.040523 0.007417 0  0.046981 0.007915999999999999 0  0.044552 0.011618 0  0.02803 0.012065 0  0.048158 0.014491 0  0.024965 0.008232 0  0.0312 0.008 0  0.039833 0.009031000000000001 0  0.063767 0.010478 0  0.03262 0.002675 0  0.032959 0.006795 0  0.01993 0.012069 0  0.023488 0.008486 0  0.016792 0.008456 0  0.032034 0.009643000000000001 0  0.024102 0.006846 0  0.012083 0.012011 0  0.008449 0.008924 0  0.015904 0.009806 0  0.019941 0.004003 0  0.004045 0.012077 0  0.015941 0.006775 0  0.006801 0.008658000000000001 0  0.012576 0.004104 0  0.004043 0.004334 0  0.011557 0.004117 0  0.009752 0.007969 0  0.008116 0.007073 0  0.033109 0.008373999999999999 0  0.055104 0.008305999999999999 0  0.06450500000000001 0.008737999999999999 0  0.06289 0.007944 0  0.055978 0.009837 0  0.038828 0.007814 0  0.015049 0.008389000000000001 0  0.072144 0.009922 0  0.071864 0.008373999999999999 0  0.031718 0.006315 0  0.07324899999999999 0.007005 0  0.055977 0.005684 0  0.0001 0.002496 0.001552  0.0001 0.004201 0.001669  0.0001 0.005979 0.001653  0.0001 0.007948999999999999 0.001514  0.0001 0.009702000000000001 0.001475  0.0001 0.011321 0.001546  0.0001 0.012813 0.001427  0.0001 0.014249 0.002116  0.0001 0.002117 0.006391  0.0001 0.001972 0.008283  0.0001 0.005754 0.007932  0.0001 0.009671000000000001 0.007839  0.0001 0.012904 0.008303  0.0001 0.014306 0.007662  0.0001 0.014251 0.004881  0.0001 0.002577 0.003697  0.0001 0.003896 0.008037000000000001  0.0001 0.007614 0.007812  0.0001 0.011383 0.008057999999999999  0.0001 0.010825 0.005871  0.0001 0.004992 0.003707  0.0001 0.007018 0.003607  0.0001 0.008758999999999999 0.003123  0.0001 0.010447 0.003529  0.0001 0.012447 0.003597  0.0001 0.012689 0.006437  0.0001 0.006436 0.005816  0.0001 0.004284 0.00595  0.0001 0.008678999999999999 0.005437  0.077985 0.0159 0.004811  0.07714799999999999 0.0159 0.002243  0.077336 0.0159 0.007454  0.074577 0.0159 0.007285  0.072115 0.0159 0.007215  0.069772 0.0159 0.007282  0.067505 0.0159 0.007313  0.06521399999999999 0.0159 0.007333  0.062987 0.0159 0.007483  0.060768 0.0159 0.007562  0.058637 0.0159 0.007416  0.056421 0.0159 0.007322  0.054223 0.0159 0.007415  0.052127 0.0159 0.007552  0.049978 0.0159 0.007556  0.047806 0.0159 0.007346  0.04557 0.0159 0.007283  0.043266 0.0159 0.007165  0.040815 0.0159 0.007076  0.038242 0.0159 0.007193  0.035728 0.0159 0.007222  0.03334 0.0159 0.007323  0.030994 0.0159 0.007339  0.028635 0.0159 0.007331  0.026221 0.0159 0.007254  0.023843 0.0159 0.007258  0.021585 0.0159 0.007377  0.019434 0.0159 0.00753  0.017184 0.0159 0.007555  0.014882 0.0159 0.007306  0.012525 0.0159 0.00719  0.010133 0.0159 0.007174  0.007685 0.0159 0.007269  0.005511 0.0159 0.007764  0.003686 0.0159 0.008312  0.001936 0.0159 0.007627  0.003857 0.0159 0.002532  0.006577 0.0159 0.002359  0.008987 0.0159 0.002185  0.011038 0.0159 0.001764  0.013041 0.0159 0.002206  0.015344 0.0159 0.002378  0.017967 0.0159 0.002781  0.020643 0.0159 0.002487  0.023155 0.0159 0.002417  0.025575 0.0159 0.002326  0.028007 0.0159 0.002376  0.030373 0.0159 0.00235  0.032715 0.0159 0.002395  0.03502 0.0159 0.00233  0.037304 0.0159 0.002295  0.039629 0.0159 0.002216  0.041693 0.0159 0.001737  0.043697 0.0159 0.002184  0.045908 0.0159 0.002317  0.048248 0.0159 0.002493  0.050824 0.0159 0.002817  0.053462 0.0159 0.002449  0.056181 0.0159 0.002337  0.05875 0.0159 0.002518  0.061473 0.0159 0.002899  0.06408700000000001 0.0159 0.00252  0.066501 0.0159 0.002363  0.06898899999999999 0.0159 0.002353  0.071496 0.0159 0.002291  0.074077 0.0159 0.002293  0.00243 0.0159 0.00492  0.075643 0.0159 0.004778  0.07310800000000001 0.0159 0.004764  0.070634 0.0159 0.004775  0.068233 0.0159 0.004813  0.065896 0.0159 0.00488  0.06365899999999999 0.0159 0.005054  0.061709 0.0159 0.005563  0.059707 0.0159 0.005082  0.057484 0.0159 0.004942  0.055088 0.0159 0.004976  0.05288 0.0159 0.005059  0.050951 0.0159 0.005555  0.048987 0.0159 0.005057  0.046769 0.0159 0.004856  0.044427 0.0159 0.004704  0.041786 0.0159 0.004327  0.039094 0.0159 0.004679  0.036606 0.0159 0.004776  0.034204 0.0159 0.004826  0.03184 0.0159 0.004852  0.029481 0.0159 0.004846  0.0271 0.0159 0.004823  0.024715 0.0159 0.004818  0.022362 0.0159 0.004879  0.020116 0.0159 0.005037  0.018144 0.0159 0.005533  0.016098 0.0159 0.005009  0.013755 0.0159 0.004749  0.011095 0.0159 0.004363  0.008349000000000001 0.0159 0.004726  0.00556 0.0159 0.004973  0.003836 0.0159 0.006507  0.0799 0.013609 0.004105  0.0799 0.013821 0.001643  0.0799 0.011769 0.001952  0.0799 0.009632999999999999 0.00228  0.0799 0.007041 0.00265  0.0799 0.002762 0.001901  0.0799 0.011187 0.008181000000000001  0.0799 0.007282 0.007622  0.0799 0.003424 0.008251  0.0799 0.001926 0.007643  0.0799 0.012902 0.007115  0.0799 0.004882 0.001664  0.0799 0.009488 0.007881000000000001  0.0799 0.004999 0.007941  0.0799 0.002168 0.004964  0.0799 0.003821 0.006358  0.0799 0.011276 0.004373  0.0799 0.010759 0.006512  0.0799 0.004456 0.003818  0.0799 0.006136 0.005535  0.0799 0.008711999999999999 0.005202  0.002464 0.0001 0.00143  0.005856 0.0001 0.001711  0.0097 0.0001 0.001685  0.013178 0.0001 0.001627  0.016829 0.0001 0.001547  0.020247 0.0001 0.001602  0.023753 0.0001 0.001698  0.02752 0.0001 0.001597  0.030682 0.0001 0.001647  0.034865 0.0001 0.001446  0.038326 0.0001 0.001517  0.042049 0.0001 0.001686  0.045489 0.0001 0.001493  0.049189 0.0001 0.001465  0.052584 0.0001 0.001461  0.056505 0.0001 0.001744  0.059994 0.0001 0.001709  0.064054 0.0001 0.001925  0.067653 0.0001 0.001266  0.071127 0.0001 0.001983  0.075308 0.0001 0.001647  0.002209 0.0001 0.003289  0.002018 0.0001 0.005729  0.002595 0.0001 0.007963  0.004516 0.0001 0.008078  0.006286 0.0001 0.00797  0.00827 0.0001 0.007945000000000001  0.010223 0.0001 0.007979999999999999  0.01194 0.0001 0.007972999999999999  0.013654 0.0001 0.007943  0.015646 0.0001 0.007866  0.017575 0.0001 0.008163  0.019335 0.0001 0.007939  0.021032 0.0001 0.007962  0.02275 0.0001 0.007981  0.024684 0.0001 0.007974  0.026574 0.0001 0.008070000000000001  0.02829 0.0001 0.008043  0.029952 0.0001 0.008019999999999999  0.032047 0.0001 0.007989  0.034077 0.0001 0.008007999999999999  0.035833 0.0001 0.008067  0.037526 0.0001 0.008168999999999999  0.039269 0.0001 0.008175999999999999  0.041165 0.0001 0.008066  0.042849 0.0001 0.008064  0.044568 0.0001 0.008075000000000001  0.046325 0.0001 0.008064  0.048268 0.0001 0.008061  0.050169 0.0001 0.008192  0.051877 0.0001 0.008182999999999999  0.053529 0.0001 0.008102  0.05537 0.0001 0.007996  0.057333 0.0001 0.007946999999999999  0.059271 0.0001 0.007972  0.060977 0.0001 0.007976  0.06297800000000001 0.0001 0.007948999999999999  0.065136 0.0001 0.008004000000000001  0.06690400000000001 0.0001 0.008035  0.06854 0.0001 0.008054  0.070271 0.0001 0.008096000000000001  0.07216400000000001 0.0001 0.008170999999999999  0.07395 0.0001 0.008192  0.07550999999999999 0.0001 0.008156999999999999  0.076986 0.0001 0.008371  0.07829 0.0001 0.007787  0.004086 0.0001 0.001671  0.007656 0.0001 0.001702  0.011448 0.0001 0.001632  0.014905 0.0001 0.001641  0.018575 0.0001 0.001518  0.021965 0.0001 0.001637  0.0258 0.0001 0.001739  0.02906 0.0001 0.001254  0.03289 0.0001 0.001778  0.036603 0.0001 0.00135  0.040123 0.0001 0.001771  0.043707 0.0001 0.001499  0.04737 0.0001 0.001688  0.050883 0.0001 0.001357  0.054403 0.0001 0.001749  0.058255 0.0001 0.00167  0.061843 0.0001 0.00183  0.066135 0.0001 0.001659  0.069219 0.0001 0.001659  0.073423 0.0001 0.002024  0.07735599999999999 0.0001 0.001914  0.077913 0.0001 0.005018  0.019276 0.0001 0.003631  0.022944 0.0001 0.003711  0.010436 0.0001 0.003698  0.006524 0.0001 0.003771  0.014101 0.0001 0.003683  0.01764 0.0001 0.003224  0.008505 0.0001 0.003759  0.02108 0.0001 0.003684  0.012262 0.0001 0.003683  0.027131 0.0001 0.003927  0.029181 0.0001 0.00307  0.031458 0.0001 0.003972  0.035736 0.0001 0.002791  0.038666 0.0001 0.00426  0.04288 0.0001 0.003855  0.048557 0.0001 0.003918  0.051637 0.0001 0.00286  0.05533 0.0001 0.003817  0.059202 0.0001 0.003722  0.063203 0.0001 0.003899  0.06557200000000001 0.0001 0.004031  0.067705 0.0001 0.003108  0.07274600000000001 0.0001 0.004325  0.004297 0.0001 0.003984  0.003756 0.0001 0.006362  0.005537 0.0001 0.006021  0.00744 0.0001 0.005882  0.009356 0.0001 0.005864  0.011222 0.0001 0.005916  0.013089 0.0001 0.005898  0.015096 0.0001 0.005808  0.01757 0.0001 0.005766  0.019943 0.0001 0.00588  0.021902 0.0001 0.005913  0.023807 0.0001 0.00588  0.025704 0.0001 0.00595  0.02745 0.0001 0.006308  0.029258 0.0001 0.005617  0.031106 0.0001 0.006246  0.033005 0.0001 0.005965  0.035006 0.0001 0.00622  0.036841 0.0001 0.006426  0.038423 0.0001 0.006672  0.040124 0.0001 0.006148  0.041922 0.0001 0.006113  0.043711 0.0001 0.006345  0.045539 0.0001 0.006335  0.047433 0.0001 0.00604  0.049355 0.0001 0.006243  0.050979 0.0001 0.006804  0.052556 0.0001 0.006292  0.05442 0.0001 0.005963  0.056348 0.0001 0.005881  0.058271 0.0001 0.005864  0.060171 0.0001 0.005926  0.062105 0.0001 0.005904  0.064096 0.0001 0.005982  0.06593499999999999 0.0001 0.006324  0.06772499999999999 0.0001 0.005652  0.069491 0.0001 0.006374  0.071272 0.0001 0.006139  0.07303 0.0001 0.006661  0.074659 0.0001 0.006296  0.076518 0.0001 0.006592  0.015954 0.0001 0.003683  0.024926 0.0001 0.003806  0.044629 0.0001 0.002995  0.040895 0.0001 0.003952  0.033992 0.0001 0.00385  0.037222 0.0001 0.002885  0.046439 0.0001 0.003884  0.050158 0.0001 0.002868  0.053239 0.0001 0.003902  0.057303 0.0001 0.003725  0.061118 0.0001 0.00377  0.06993000000000001 0.0001 0.004033  0.075447 0.0001 0.00386  0.050935 0.0001 0.004762  0.036237 0.0001 0.004568  0.04464 0.0001 0.004721  0.007939 0.001699 0.009599999999999999  0.014936 0.001735 0.009599999999999999  0.022948 0.001583 0.009599999999999999  0.039049 0.001655 0.009599999999999999  0.048141 0.001547 0.009599999999999999  0.07263699999999999 0.00205 0.009599999999999999  0.001528 0.008045999999999999 0.009599999999999999  0.031847 0.01455 0.009599999999999999  0.071467 0.012784 0.009599999999999999  0.071298 0.01432 0.009599999999999999  0.064702 0.013407 0.009599999999999999  0.064535 0.01197 0.009599999999999999  0.06467000000000001 0.010407 0.009599999999999999  0.065917 0.009198 0.009599999999999999  0.067574 0.00852 0.009599999999999999  0.069324 0.008784 0.009599999999999999  0.070621 0.009601 0.009599999999999999  0.071494 0.011023 0.009599999999999999  0.07691099999999999 0.007214 0.009599999999999999  0.07544099999999999 0.007503 0.009599999999999999  0.07395 0.006781 0.009599999999999999  0.072848 0.005685 0.009599999999999999  0.072503 0.003983 0.009599999999999999  0.075113 0.008715000000000001 0.009599999999999999  0.07376199999999999 0.009459 0.009599999999999999  0.07281700000000001 0.01067 0.009599999999999999  0.072559 0.012184 0.009599999999999999  0.07287399999999999 0.01389 0.009599999999999999  0.07426000000000001 0.014921 0.009599999999999999  0.07835499999999999 0.009202999999999999 0.009599999999999999  0.076804 0.008482 0.009599999999999999  0.071435 0.003235 0.009599999999999999  0.070747 0.001685 0.009599999999999999  0.06487999999999999 0.002782 0.009599999999999999  0.064577 0.003966 0.009599999999999999  0.064748 0.005526 0.009599999999999999  0.065923 0.006704 0.009599999999999999  0.06732100000000001 0.007349 0.009599999999999999  0.069059 0.007451 0.009599999999999999  0.070465 0.006389 0.009599999999999999  0.071407 0.004939 0.009599999999999999  0.063416 0.011294 0.009599999999999999  0.063028 0.009960999999999999 0.009599999999999999  0.060929 0.008539 0.009599999999999999  0.059448 0.008521000000000001 0.009599999999999999  0.057934 0.008902999999999999 0.009599999999999999  0.056819 0.010353 0.009599999999999999  0.056494 0.012005 0.009599999999999999  0.056583 0.013857 0.009599999999999999  0.06343799999999999 0.01272 0.009599999999999999  0.055425 0.012804 0.009599999999999999  0.054768 0.014358 0.009599999999999999  0.050009 0.014821 0.009599999999999999  0.048824 0.013793 0.009599999999999999  0.048517 0.01203 0.009599999999999999  0.048682 0.010359 0.009599999999999999  0.049786 0.009276 0.009599999999999999  0.051167 0.008448000000000001 0.009599999999999999  0.053187 0.008576 0.009599999999999999  0.054473 0.009583 0.009599999999999999  0.055436 0.011008 0.009599999999999999  0.047401 0.011249 0.009599999999999999  0.046863 0.009660999999999999 0.009599999999999999  0.04531 0.00877 0.009599999999999999  0.043562 0.008482 0.009599999999999999  0.041948 0.009207999999999999 0.009599999999999999  0.040663 0.010342 0.009599999999999999  0.040503 0.012126 0.009599999999999999  0.040598 0.013761 0.009599999999999999  0.041713 0.014771 0.009599999999999999  0.047187 0.01432 0.009599999999999999  0.047452 0.01277 0.009599999999999999  0.06351 0.002901 0.009599999999999999  0.063475 0.004541 0.009599999999999999  0.0631 0.006045 0.009599999999999999  0.061702 0.007212 0.009599999999999999  0.060039 0.007427 0.009599999999999999  0.058427 0.007266 0.009599999999999999  0.057222 0.006031 0.009599999999999999  0.056513 0.004535 0.009599999999999999  0.056645 0.002797 0.009599999999999999  0.057211 0.001452 0.009599999999999999  0.038717 0.014553 0.009599999999999999  0.039366 0.013015 0.009599999999999999  0.03949 0.011419 0.009599999999999999  0.03908 0.009771 0.009599999999999999  0.03777 0.008853 0.009599999999999999  0.036442 0.008226000000000001 0.009599999999999999  0.034187 0.008913000000000001 0.009599999999999999  0.033228 0.010043 0.009599999999999999  0.032515 0.011562 0.009599999999999999  0.032699 0.013279 0.009599999999999999  0.033481 0.014605 0.009599999999999999  0.055463 0.003241 0.009599999999999999  0.055357 0.00478 0.009599999999999999  0.054756 0.006179 0.009599999999999999  0.053586 0.007184 0.009599999999999999  0.05202 0.007448 0.009599999999999999  0.050258 0.007078 0.009599999999999999  0.049027 0.005828 0.009599999999999999  0.048537 0.004364 0.009599999999999999  0.048788 0.002736 0.009599999999999999  0.049621 0.001463 0.009599999999999999  0.025304 0.014358 0.009599999999999999  0.024553 0.013189 0.009599999999999999  0.024535 0.011526 0.009599999999999999  0.024977 0.009853000000000001 0.009599999999999999  0.02635 0.008942 0.009599999999999999  0.027857 0.008529 0.009599999999999999  0.029496 0.008692999999999999 0.009599999999999999  0.030726 0.009863 0.009599999999999999  0.031342 0.011305 0.009599999999999999  0.031412 0.013001 0.009599999999999999  0.030536 0.014332 0.009599999999999999  0.043175 0.007283 0.009599999999999999  0.041616 0.00679 0.009599999999999999  0.040723 0.005293 0.009599999999999999  0.040519 0.003793 0.009599999999999999  0.040771 0.002037 0.009599999999999999  0.046763 0.001772 0.009599999999999999  0.047506 0.003274 0.009599999999999999  0.047476 0.005288 0.009599999999999999  0.046453 0.006633 0.009599999999999999  0.044884 0.007475 0.009599999999999999  0.039455 0.003151 0.009599999999999999  0.032609 0.002676 0.009599999999999999  0.032537 0.004237 0.009599999999999999  0.032747 0.005781 0.009599999999999999  0.033856 0.007158 0.009599999999999999  0.035214 0.007749 0.009599999999999999  0.037542 0.007363 0.009599999999999999  0.038654 0.006376 0.009599999999999999  0.039475 0.004901 0.009599999999999999  0.02073 0.00855 0.009599999999999999  0.02226 0.009320999999999999 0.009599999999999999  0.023364 0.010613 0.009599999999999999  0.023453 0.012275 0.009599999999999999  0.023087 0.01366 0.009599999999999999  0.022095 0.014862 0.009599999999999999  0.016471 0.011995 0.009599999999999999  0.016768 0.010586 0.009599999999999999  0.017682 0.009405 0.009599999999999999  0.018977 0.008692999999999999 0.009599999999999999  0.024565 0.005012 0.009599999999999999  0.025372 0.006449 0.009599999999999999  0.026773 0.007438 0.009599999999999999  0.028457 0.007452 0.009599999999999999  0.029834 0.00718 0.009599999999999999  0.031387 0.005141 0.009599999999999999  0.031452 0.003739 0.009599999999999999  0.031109 0.002434 0.009599999999999999  0.030204 0.001256 0.009599999999999999  0.024742 0.001736 0.009599999999999999  0.024631 0.003353 0.009599999999999999  0.020937 0.007302 0.009599999999999999  0.022278 0.006552 0.009599999999999999  0.023209 0.005379 0.009599999999999999  0.023525 0.003979 0.009599999999999999  0.016773 0.002055 0.009599999999999999  0.016532 0.003851 0.009599999999999999  0.016759 0.005428 0.009599999999999999  0.017652 0.006584 0.009599999999999999  0.019242 0.007458 0.009599999999999999  0.013029 0.008699999999999999 0.009599999999999999  0.0144 0.009415 0.009599999999999999  0.015425 0.010817 0.009599999999999999  0.015374 0.012489 0.009599999999999999  0.015221 0.014157 0.009599999999999999  0.010318 0.014993 0.009599999999999999  0.008829 0.014258 0.009599999999999999  0.008517 0.01269 0.009599999999999999  0.008593999999999999 0.010819 0.009599999999999999  0.009689 0.00941 0.009599999999999999  0.011262 0.008547000000000001 0.009599999999999999  0.012789 0.007454 0.009599999999999999  0.014367 0.006669 0.009599999999999999  0.015474 0.005162 0.009599999999999999  0.015443 0.003319 0.009599999999999999  0.013611 0.00109 0.009599999999999999  0.009136999999999999 0.002089 0.009599999999999999  0.008487 0.003432 0.009599999999999999  0.008626999999999999 0.005478 0.009599999999999999  0.009704000000000001 0.006609 0.009599999999999999  0.011031 0.007321 0.009599999999999999  0.002991 0.008803999999999999 0.009599999999999999  0.001595 0.009381 0.009599999999999999  0.007157 0.013883 0.009599999999999999  0.007469 0.012127 0.009599999999999999  0.007267 0.010605 0.009599999999999999  0.006378 0.009358 0.009599999999999999  0.004914 0.008614 0.009599999999999999  0.007418 0.004641 0.009599999999999999  0.006935 0.006288 0.009599999999999999  0.005373 0.007322 0.009599999999999999  0.003418 0.007485 0.009599999999999999  0.001866 0.006688 0.009599999999999999  0.001105 0.005757 0.009599999999999999  0.006564 0.001634 0.009599999999999999  0.007287 0.002978 0.009599999999999999  0.055276 0.001623 0.009599999999999999  0.06279700000000001 0.001448 0.009599999999999999  0.06328300000000001 0.014312 0.009599999999999999  0.005815 0.014936 0.009599999999999999  0.064679 0.001542 0.009599999999999999  0.073961 0.001202 0.009599999999999999  0.06544 0.014712 0.009599999999999999  0.077322 0.000993 0.009599999999999999  0.033721 0.001338 0.009599999999999999  0.001517 0.001248 0.009599999999999999  0.00129 0.014521 0.009599999999999999  0.078723 0.014564 0.009599999999999999  0.017083 0.014433 0.009599999999999999  0.078333 0.007196 0.009599999999999999  0.078551 0.001381 0.009599999999999999  0.031861 0.001349 0.009599999999999999  0.072167 0.009258000000000001 0.009599999999999999  0.03901 0.008004000000000001 0.009599999999999999  0.023617 0.002701 0.009599999999999999  0.008070000000000001 0.009110999999999999 0.009599999999999999  0.0239 0.014701 0.009599999999999999  0.016024 0.009013 0.009599999999999999  0.07077799999999999 0.007990000000000001 0.009599999999999999  0.07265199999999999 0.007351 0.009599999999999999  0.06458 0.00703 0.009599999999999999  0.062342 0.008763999999999999 0.009599999999999999  0.05651 0.008789999999999999 0.009599999999999999  0.048316 0.008822999999999999 0.009599999999999999  0.049568 0.00813 0.009599999999999999  0.046635 0.008095 0.009599999999999999  0.056883 0.00742 0.009599999999999999  0.056006 0.006146 0.009599999999999999  0.032836 0.008678 0.009599999999999999  0.048213 0.007038 0.009599999999999999  0.073911 0.008178 0.009599999999999999  0.064306 0.008776000000000001 0.009599999999999999  0.025182 0.008118999999999999 0.009599999999999999  0.0311 0.00842 0.009599999999999999  0.031954 0.009974 0.009599999999999999  0.03244 0.007206 0.009599999999999999  0.023685 0.008876999999999999 0.009599999999999999  0.03112 0.006505 0.009599999999999999  0.023869 0.006841 0.009599999999999999  0.022266 0.007992000000000001 0.009599999999999999  0.009708 0.008037000000000001 0.009599999999999999  0.01604 0.006982 0.009599999999999999  0.014448 0.008028 0.009599999999999999  0.040538 0.008429000000000001 0.009599999999999999  0.055114 0.007974999999999999 0.009599999999999999  0.042174 0.008012 0.009599999999999999  0.006627 0.008073 0.009599999999999999  0.040043 0.006646 0.009599999999999999  0.055626 0.009573 0.009599999999999999  0.016383 0.01324 0.009599999999999999  0.008354 0.007213 0.009599999999999999  0.017537 0.008017 0.009599999999999999  0.065939 0.007962 0.009599999999999999  0.071616 0.006415 0.009599999999999999  0.063113 0.007465 0.009599999999999999  0.075699 0.013387 0.0113  0.074763 0.012753 0.0113  0.074668 0.011479 0.0113  0.075678 0.010656 0.0113  0.07692 0.011001 0.0113  0.077419 0.012157 0.0113  0.076804 0.013238 0.0113  0.077348 0.003662 0.0113  0.076788 0.002752 0.0113  0.075514 0.002684 0.0113  0.074668 0.003644 0.0113  0.074944 0.004941 0.0113  0.076183 0.005396 0.0113  0.077239 0.004773 0.0113  0.060327 0.01336 0.0113  0.061255 0.012752 0.0113  0.061291 0.011542 0.0113  0.060344 0.010695 0.0113  0.059095 0.011013 0.0113  0.058598 0.012166 0.0113  0.059216 0.013237 0.0113  0.069383 0.004393 0.0113  0.068798 0.005289 0.0113  0.067508 0.005329 0.0113  0.06668 0.004348 0.0113  0.066966 0.003129 0.0113  0.068174 0.002604 0.0113  0.06927700000000001 0.003271 0.0113  0.069368 0.011663 0.0113  0.068768 0.010756 0.0113  0.06750200000000001 0.010668 0.0113  0.066654 0.011695 0.0113  0.066967 0.012955 0.0113  0.068134 0.013405 0.0113  0.069243 0.012738 0.0113  0.053414 0.011682 0.0113  0.052745 0.010792 0.0113  0.051496 0.010713 0.0113  0.050641 0.011664 0.0113  0.050952 0.012927 0.0113  0.052163 0.013351 0.0113  0.053277 0.012717 0.0113  0.044323 0.013365 0.0113  0.045246 0.012771 0.0113  0.045327 0.011539 0.0113  0.044347 0.010715 0.0113  0.0431 0.011011 0.0113  0.042599 0.012159 0.0113  0.043213 0.013235 0.0113  0.060356 0.005399 0.0113  0.061283 0.004743 0.0113  0.061337 0.003548 0.0113  0.060389 0.002672 0.0113  0.059101 0.00296 0.0113  0.058576 0.00416 0.0113  0.059228 0.005296 0.0113  0.050617 0.004365 0.0113  0.051236 0.00526 0.0113  0.052513 0.005324 0.0113  0.053339 0.00433 0.0113  0.053035 0.003101 0.0113  0.051805 0.002619 0.0113  0.050704 0.00325 0.0113  0.043679 0.00539 0.0113  0.042744 0.004777 0.0113  0.042662 0.003477 0.0113  0.043658 0.00263 0.0113  0.044932 0.003006 0.0113  0.04542 0.004193 0.0113  0.04476 0.005288 0.0113  0.035662 0.010656 0.0113  0.034727 0.011262 0.0113  0.03467 0.012505 0.0113  0.035604 0.013351 0.0113  0.036889 0.013063 0.0113  0.037404 0.011823 0.0113  0.036766 0.010735 0.0113  0.028319 0.013364 0.0113  0.029241 0.012733 0.0113  0.029306 0.011518 0.0113  0.02832 0.01067 0.0113  0.027089 0.010993 0.0113  0.026591 0.012122 0.0113  0.027246 0.013234 0.0113  0.037412 0.004386 0.0113  0.036769 0.005267 0.0113  0.035524 0.005318 0.0113  0.034682 0.004404 0.0113  0.034991 0.003036 0.0113  0.036209 0.002559 0.0113  0.037318 0.003219 0.0113  0.029381 0.00439 0.0113  0.028797 0.005287 0.0113  0.027508 0.005329 0.0113  0.026677 0.004348 0.0113  0.026929 0.003111 0.0113  0.028165 0.002603 0.0113  0.029274 0.003269 0.0113  0.019665 0.010647 0.0113  0.018759 0.011237 0.0113  0.018689 0.012512 0.0113  0.019642 0.013339 0.0113  0.020945 0.013063 0.0113  0.021381 0.011876 0.0113  0.020745 0.010796 0.0113  0.011644 0.010622 0.0113  0.010724 0.011183 0.0113  0.010659 0.012462 0.0113  0.011629 0.013352 0.0113  0.012892 0.013068 0.0113  0.013403 0.011837 0.0113  0.012765 0.010741 0.0113  0.018607 0.004393 0.0113  0.019202 0.005273 0.0113  0.020519 0.005308 0.0113  0.021334 0.004326 0.0113  0.021043 0.00309 0.0113  0.01984 0.002551 0.0113  0.018729 0.003231 0.0113  0.011623 0.005402 0.0113  0.010731 0.004782 0.0113  0.010681 0.003536 0.0113  0.011647 0.00267 0.0113  0.012919 0.002982 0.0113  0.013421 0.004197 0.0113  0.012759 0.005309 0.0113  0.004321 0.013343 0.0113  0.005248 0.01276 0.0113  0.00532 0.011527 0.0113  0.004329 0.01071 0.0113  0.003085 0.011021 0.0113  0.002598 0.012174 0.0113  0.003219 0.013239 0.0113  0.002658 0.003667 0.0113  0.003262 0.002794 0.0113  0.004519 0.00274 0.0113  0.005382 0.003665 0.0113  0.005021 0.004931 0.0113  0.003802 0.005396 0.0113  0.00275 0.004756 0.0113  0.076061 0.012062 0.0113  0.076059 0.003987 0.0113  0.06001 0.01208 0.0113  0.068065 0.011979 0.0113  0.068081 0.004095 0.0113  0.044017 0.012083 0.0113  0.052067 0.011987 0.0113  0.044026 0.004124 0.0113  0.060083 0.004076 0.0113  0.051909 0.004035 0.0113  0.035923 0.011952 0.0113  0.036091 0.004107 0.0113  0.027996 0.012042 0.0113  0.028072 0.004089 0.0113  0.01998 0.011958 0.0113  0.011911 0.004099 0.0113  0.011914 0.011933 0.0113  0.019969 0.004044 0.0113  0.004012 0.012077 0.0113  0.003949 0.004005 0.0113  0.076055 0.013175 0.005711  0.073213 0.013083 0.00452  0.076419 0.010017 0.00426  0.07678500000000001 0.012371 0.003669  0.07030599999999999 0.012949 0.006233  0.072533 0.009757999999999999 0.006718  0.075359 0.006685 0.00766  0.067509 0.012655 0.005923  0.067714 0.01275 0.003314  0.06981 0.01034 0.005143  0.070074 0.013224 0.003248  0.073307 0.007422 0.006831  0.07147000000000001 0.011096 0.003497  0.074084 0.013886 0.007758  0.070326 0.007822000000000001 0.006127  0.073278 0.003873 0.007756  0.073243 0.002435 0.004552  0.07221900000000001 0.007936 0.003545  0.067496 0.009102000000000001 0.004037  0.074429 0.01133 0.007651  0.076473 0.004576 0.007332  0.07599 0.007342 0.004192  0.077898 0.01152 0.006955  0.07524 0.013393 0.001141  0.075553 0.01391 0.00311  0.07667 0.01325 0.001371  0.078074 0.013441 0.002099  0.077801 0.011316 0.001623  0.076811 0.003171 0.004042  0.076373 0.010526 0.001171  0.076366 0.009035 0.001351  0.07806399999999999 0.008555999999999999 0.001878  0.069159 0.007167 0.00344  0.07467600000000001 0.009622 0.001355  0.067286 0.007194 0.006239  0.070316 0.004799 0.006073  0.073078 0.008656 0.001298  0.073852 0.00963 0.003967  0.07401199999999999 0.011343 0.001693  0.075905 0.011933 0.001584  0.072258 0.012174 0.001541  0.072461 0.010288 0.001595  0.073631 0.013419 0.001397  0.071687 0.013979 0.001385  0.07170899999999999 0.01343 0.008118999999999999  0.064342 0.013107 0.004859  0.061336 0.013196 0.005106  0.064433 0.009416000000000001 0.006076  0.06897399999999999 0.013449 0.007882  0.068023 0.012051 0.009799  0.066204 0.013846 0.007972999999999999  0.058731 0.012923 0.007137  0.060954 0.009917 0.005852  0.06453200000000001 0.007362 0.007327  0.055992 0.012998 0.006089  0.055325 0.013323 0.003522  0.058374 0.010671 0.0073  0.061105 0.007766 0.00755  0.06504799999999999 0.004975 0.007493  0.064704 0.007634 0.003646  0.063292 0.014211 0.007830999999999999  0.06546100000000001 0.01216 0.00766  0.066898 0.010197 0.007102  0.06666800000000001 0.004176 0.006269  0.066972 0.011687 0.008281999999999999  0.068174 0.004373 0.004062  0.06531099999999999 0.010353 0.00834  0.068785 0.011042 0.008037000000000001  0.068914 0.008879 0.008070000000000001  0.066409 0.008696000000000001 0.008222999999999999  0.07154099999999999 0.008102 0.008142  0.07076200000000001 0.010346 0.008116999999999999  0.07825500000000001 0.007188 0.007861999999999999  0.07646699999999999 0.008078999999999999 0.008085  0.07105300000000001 0.004427 0.008192  0.072626 0.005939 0.008205  0.07772999999999999 0.002106 0.007874000000000001  0.07574 0.003416 0.009116000000000001  0.069457 0.014085 0.001184  0.068032 0.013539 0.001475  0.07067 0.012257 0.001294  0.06924 0.012391 0.001136  0.07090100000000001 0.010624 0.001204  0.068855 0.010617 0.001478  0.070595 0.009018999999999999 0.001669  0.062412 0.007767 0.00505  0.063373 0.003831 0.004248  0.06805700000000001 0.008736000000000001 0.001377  0.06693200000000001 0.009918 0.001637  0.059658 0.010662 0.003514  0.065598 0.010623 0.00117  0.065427 0.010879 0.003406  0.06525599999999999 0.00891 0.001583  0.066881 0.011859 0.001295  0.06357400000000001 0.012242 0.001359  0.065111 0.012043 0.001338  0.06639299999999999 0.013557 0.001511  0.062312 0.01393 0.001755  0.064758 0.013972 0.001436  0.076 0.01206 0.009608  0.076292 0.010357 0.008031999999999999  0.073577 0.009322 0.008454  0.074864 0.008845 0.007647  0.07224700000000001 0.011785 0.007913  0.077267 0.013824 0.007702  0.07795199999999999 0.009544 0.007697  0.053395 0.013517 0.005762  0.05612 0.009807 0.005164  0.059032 0.007449 0.006106  0.061676 0.003993 0.007163  0.062252 0.010274 0.007835999999999999  0.056022 0.006924 0.007195  0.058593 0.004587 0.004629  0.05347 0.010314 0.004778  0.060218 0.009283 0.008064  0.053524 0.007049 0.006517  0.056222 0.003219 0.004803  0.054655 0.006898 0.004084  0.049943 0.010078 0.007006  0.050967 0.009346 0.004232  0.049517 0.013625 0.004731  0.053028 0.0139 0.003563  0.056491 0.01046 0.008162000000000001  0.069442 0.001506 0.007129  0.071037 0.002418 0.007787  0.067969 0.004034 0.009538  0.06920900000000001 0.003481 0.007581  0.067658 0.002123 0.007284  0.065526 0.002837 0.007835999999999999  0.063599 0.002963 0.008240000000000001  0.066025 0.00668 0.008396000000000001  0.06782199999999999 0.00727 0.00839  0.06787600000000001 0.005528 0.007861  0.07094300000000001 0.006296 0.007983000000000001  0.069517 0.006767 0.008142999999999999  0.06948799999999999 0.004918 0.008286999999999999  0.06382 0.012378 0.008243  0.063897 0.010734 0.007946999999999999  0.060843 0.012071 0.009748  0.059434 0.012057 0.009655  0.06046 0.0111 0.008133  0.062234 0.012174 0.007893000000000001  0.062531 0.008659999999999999 0.008090999999999999  0.0578 0.008846 0.008238000000000001  0.056551 0.012226 0.008122000000000001  0.056939 0.013851 0.008205  0.060627 0.01355 0.007787  0.059351 0.013518 0.001207  0.059503 0.013419 0.003203  0.060717 0.014369 0.001331  0.062156 0.01217 0.001209  0.060745 0.012223 0.001593  0.063746 0.010531 0.001308  0.06147 0.010338 0.001319  0.062641 0.011409 0.004015  0.062873 0.009181999999999999 0.002344  0.05229 0.007761 0.004942  0.057752 0.008835000000000001 0.001117  0.057919 0.008514000000000001 0.003039  0.05955 0.010984 0.001198  0.059512 0.009431 0.001285  0.058105 0.010477 0.001441  0.056663 0.010277 0.00152  0.056076 0.008167000000000001 0.001719  0.057971 0.011851 0.001422  0.057323 0.011848 0.003506  0.057812 0.013717 0.001687  0.056382 0.013019 0.001244  0.047084 0.013299 0.004615  0.050037 0.006703 0.005329  0.052764 0.004838 0.005065  0.054551 0.01208 0.007922  0.048297 0.008758 0.007972999999999999  0.047165 0.00691 0.006878  0.050773 0.004591 0.007541  0.044063 0.009382 0.006048  0.046972 0.009381 0.004869  0.051443 0.011046 0.008023000000000001  0.044372 0.013716 0.007178  0.042299 0.013499 0.004876  0.044736 0.011692 0.004371  0.055087 0.013938 0.008155000000000001  0.052157 0.012014 0.009656  0.052671 0.012152 0.007107  0.052792 0.013972 0.00779  0.050667 0.013478 0.007544  0.04876 0.013884 0.008096000000000001  0.048627 0.011677 0.007860000000000001  0.041597 0.009908999999999999 0.004854  0.044344 0.006611 0.005412  0.048204 0.003835 0.004995  0.04745 0.007321 0.003869  0.05079 0.007979999999999999 0.007905000000000001  0.050175 0.004251 0.003703  0.052491 0.008836999999999999 0.007953  0.041536 0.00718 0.006655  0.044267 0.004129 0.005904  0.043576 0.003372 0.003864  0.055025 0.008607999999999999 0.008002  0.054171 0.010245 0.008115000000000001  0.06938800000000001 0.003457 0.001225  0.069685 0.002286 0.004295  0.070422 0.002186 0.001417  0.06818 0.002291 0.001492  0.066659 0.00175 0.001224  0.066062 0.002351 0.003666  0.06388000000000001 0.00318 0.001202  0.065236 0.002509 0.001376  0.06589200000000001 0.004806 0.00149  0.06614299999999999 0.005795 0.004034  0.06813900000000001 0.005989 0.001414  0.067899 0.004347 0.001359  0.06894400000000001 0.007495 0.001178  0.066453 0.00716 0.001664  0.07067 0.00671 0.001376  0.07181800000000001 0.005901 0.004724  0.069995 0.005015 0.001855  0.038745 0.013467 0.00515  0.038021 0.006846 0.007946  0.040699 0.00375 0.007604  0.038131 0.010274 0.005003  0.035392 0.009497999999999999 0.004718  0.036021 0.013062 0.005087  0.042892 0.01186 0.007901  0.059554 0.003273 0.008917  0.055919 0.001828 0.007988  0.045927 0.012599 0.007953999999999999  0.046708 0.010738 0.007904  0.044055 0.012059 0.009795999999999999  0.044624 0.010955 0.008127000000000001  0.045288 0.008796 0.008075000000000001  0.03926 0.010375 0.007687  0.033252 0.010555 0.005278  0.035924 0.006686 0.005095  0.038165 0.004637 0.004949  0.038575 0.007655 0.004993  0.033469 0.013629 0.005378  0.04115 0.010523 0.008281999999999999  0.041445 0.004612 0.004746  0.042673 0.009213000000000001 0.008049000000000001  0.04107 0.012318 0.007443  0.042006 0.014004 0.007983000000000001  0.039833 0.014044 0.007938000000000001  0.046589 0.014134 0.007889999999999999  0.07660699999999999 0.002468 0.001391  0.077613 0.004262 0.001363  0.078287 0.006154 0.001386  0.078057 0.00623 0.003484  0.076598 0.006061 0.001441  0.074948 0.00631 0.001263  0.074633 0.007896 0.001821  0.076668 0.0076 0.001491  0.073008 0.006623 0.001376  0.07383099999999999 0.004911 0.001064  0.074131 0.005299 0.003569  0.07552 0.004199 0.001375  0.072215 0.005346 0.00167  0.071674 0.003561 0.001944  0.073614 0.003343 0.001524  0.074631 0.001866 0.001611  0.07216400000000001 0.001682 0.002123  0.061495 0.001736 0.007535  0.06401999999999999 0.005736 0.008629  0.060914 0.004452 0.009554999999999999  0.062475 0.004928 0.008401  0.062639 0.00638 0.007587  0.060833 0.006258 0.008056000000000001  0.057638 0.006868 0.008336  0.059446 0.007881000000000001 0.008304000000000001  0.05919 0.006569 0.008474000000000001  0.059353 0.005031 0.008449  0.057297 0.005083 0.008002  0.057898 0.002215 0.007586  0.056376 0.003651 0.008203  0.0598 0.002215 0.003892  0.06253400000000001 0.003447 0.00128  0.062513 0.001686 0.001853  0.060762 0.002008 0.00135  0.057415 0.002019 0.001586  0.060212 0.004132 0.001491  0.058495 0.003309 0.001502  0.056517 0.004448 0.001412  0.058213 0.005139 0.00127  0.057317 0.006667 0.001268  0.056831 0.006033 0.003271  0.059389 0.006244 0.001713  0.060893 0.006331 0.001319  0.060989 0.005758 0.004567  0.060613 0.008222 0.001981  0.058759 0.00781 0.001147  0.064053 0.005367 0.001622  0.062707 0.007118 0.001768  0.06214 0.005042 0.001253  0.05448 0.01375 0.001459  0.052413 0.013516 0.001487  0.055022 0.011184 0.001494  0.053454 0.012253 0.001552  0.052591 0.010768 0.00134  0.054446 0.009049 0.001656  0.052525 0.009065 0.001411  0.050241 0.008395 0.001696  0.050384 0.010365 0.001406  0.048327 0.010442 0.001277  0.048335 0.01101 0.003355  0.051018 0.012245 0.001252  0.051285 0.012292 0.003943  0.047517 0.012186 0.001247  0.049342 0.012277 0.00149  0.050901 0.014503 0.00099  0.047633 0.01391 0.001534  0.049894 0.014039 0.001946  0.030267 0.013117 0.005472  0.037503 0.013665 0.007963  0.03598 0.012018 0.009745  0.029416 0.009613999999999999 0.004631  0.032521 0.007445 0.008099  0.035303 0.004352 0.004525  0.039092 0.012127 0.008014  0.036928 0.011109 0.007853000000000001  0.039739 0.00861 0.007692  0.029829 0.007161 0.008045999999999999  0.03195 0.003213 0.005632  0.033102 0.00722 0.004804  0.037697 0.008980999999999999 0.008051000000000001  0.027045 0.009490999999999999 0.006276  0.03541 0.009165 0.008148000000000001  0.027417 0.007258 0.006502  0.029531 0.005033 0.007589  0.030319 0.006517 0.004668  0.033598 0.009424999999999999 0.007761  0.033105 0.01195 0.008113  0.026771 0.01233 0.007095  0.034756 0.011363 0.008024999999999999  0.023997 0.013039 0.005902  0.028171 0.012671 0.00399  0.031493 0.012297 0.007922  0.03126 0.010111 0.007802  0.024264 0.010358 0.006761  0.034739 0.01397 0.007995  0.032334 0.014079 0.007969  0.053609 0.001638 0.00784  0.050028 0.001866 0.007397  0.04286 0.005549 0.007901999999999999  0.041516 0.002164 0.006966  0.04746 0.002021 0.007979999999999999  0.051727 0.001833 0.007099  0.053256 0.003541 0.00752  0.052054 0.003251 0.00864  0.054962 0.003191 0.007489  0.054884 0.005117 0.007687  0.05306 0.005116 0.008035  0.05408 0.00655 0.008274999999999999  0.052214 0.006404 0.008127000000000001  0.049701 0.00647 0.008193000000000001  0.051679 0.004604 0.009889999999999999  0.048317 0.004857 0.008071  0.049016 0.00309 0.00829  0.055091 0.003324 0.001491  0.055469 0.00169 0.001595  0.053536 0.001904 0.001395  0.053588 0.00226 0.004069  0.050408 0.001529 0.001454  0.050866 0.002047 0.004232  0.051873 0.001735 0.001446  0.048931 0.002034 0.001877  0.051013 0.00326 0.00165  0.047825 0.003342 0.001313  0.049224 0.004477 0.001357  0.051044 0.005057 0.001397  0.049182 0.006427 0.001895  0.054885 0.00638 0.001329  0.052339 0.006884 0.001814  0.053487 0.004526 0.001625  0.02773 0.012128 0.009686  0.022128 0.012297 0.006707  0.021209 0.012964 0.003694  0.024093 0.012489 0.00322  0.018124 0.01324 0.006168  0.022072 0.009183 0.007453  0.023795 0.007549 0.005068  0.024693 0.009311 0.003521  0.025205 0.013832 0.007707  0.028037 0.014036 0.007308  0.018203 0.00992 0.005707  0.021377 0.006411 0.005914  0.021706 0.009601999999999999 0.005035  0.023792 0.004294 0.005682  0.026425 0.010684 0.008162000000000001  0.027682 0.004312 0.006151  0.026647 0.006477 0.003746  0.024891 0.011589 0.008248  0.014819 0.010164 0.006037  0.018532 0.00688 0.0053  0.019591 0.010151 0.003786  0.021524 0.002888 0.004543  0.026541 0.008831 0.008474000000000001  0.024896 0.008133 0.007952000000000001  0.029905 0.003634 0.003476  0.027766 0.009389 0.008307  0.028632 0.010801 0.007963  0.029289 0.009096999999999999 0.008070000000000001  0.029173 0.011586 0.010116  0.029317 0.012428 0.008302  0.03008 0.013923 0.008052999999999999  0.045242 0.006943 0.008229  0.043327 0.007356 0.008258  0.044038 0.004063 0.009686  0.039384 0.005712 0.007651  0.040793 0.005304 0.008527  0.042964 0.003769 0.007787  0.043781 0.001963 0.006987  0.038687 0.002052 0.00732  0.045391 0.00145 0.007319  0.045748 0.003409 0.007821  0.045358 0.005191 0.007763  0.046727 0.006075 0.008474000000000001  0.036541 0.005374 0.007717  0.033994 0.005527 0.007778  0.033468 0.001891 0.007931000000000001  0.046164 0.002958 0.001064  0.046419 0.001461 0.002034  0.044655 0.002724 0.001317  0.046071 0.002412 0.004102  0.043717 0.001673 0.00223  0.041337 0.001927 0.003547  0.042033 0.002274 0.001191  0.042712 0.003628 0.001529  0.040814 0.003524 0.001571  0.042804 0.005428 0.001735  0.03974 0.005215 0.001862  0.042344 0.007265 0.001543  0.039964 0.007366 0.002064  0.045051 0.00603 0.001765  0.044475 0.008317 0.002292  0.045129 0.00446 0.001302  0.047094 0.004963 0.001575  0.046848 0.006729 0.001409  0.046264 0.005482 0.003815  0.04533 0.012309 0.001485  0.046577 0.010762 0.001384  0.044931 0.010417 0.001257  0.046901 0.008794 0.001588  0.043098 0.010869 0.001551  0.040357 0.010326 0.001786  0.041741 0.008985999999999999 0.001312  0.042913 0.013415 0.001445  0.041339 0.012084 0.001695  0.040777 0.013821 0.001956  0.045302 0.014147 0.00159  0.018538 0.012535 0.003475  0.026477 0.014222 0.001298  0.026035 0.0138 0.003455  0.027851 0.013212 0.001227  0.024395 0.013966 0.001373  0.026563 0.012183 0.001312  0.025099 0.012366 0.001383  0.0271 0.010682 0.001082  0.026414 0.011246 0.003492  0.025475 0.010528 0.001559  0.0272 0.00912 0.001742  0.025211 0.008668 0.001379  0.028709 0.01107 0.001445  0.030309 0.009396 0.001671  0.032038 0.011789 0.001287  0.032056 0.012081 0.003828  0.030255 0.011728 0.001848  0.031377 0.013697 0.001593  0.029382 0.013708 0.001519  0.039018 0.004145 0.008222999999999999  0.035799 0.003896 0.009469  0.037159 0.003576 0.007796  0.035962 0.001858 0.007456  0.03456 0.003493 0.007738  0.030727 0.00338 0.008285000000000001  0.032516 0.003516 0.008311000000000001  0.031661 0.005148 0.008160000000000001  0.03472 0.007362 0.007784  0.036434 0.007703 0.007709  0.034805 0.012077 0.003343  0.03393 0.012816 0.001464  0.033672 0.010749 0.001398  0.035578 0.010726 0.001385  0.034666 0.009106 0.001275  0.032869 0.008774000000000001 0.001919  0.036461 0.008883 0.002118  0.037495 0.011276 0.001716  0.038135 0.008831 0.001447  0.03933 0.012136 0.001563  0.040075 0.011661 0.004464  0.035988 0.013448 0.001502  0.038106 0.013813 0.001749  0.02631 0.005195 0.007489  0.0191 0.004274 0.005102  0.026142 0.002596 0.007034  0.038895 0.003719 0.001341  0.039605 0.002783 0.004192  0.039735 0.001931 0.001439  0.037944 0.002273 0.001725  0.036508 0.001977 0.001608  0.036685 0.002195 0.004223  0.037156 0.00455 0.001432  0.033633 0.001514 0.00142  0.034094 0.002198 0.004132  0.035086 0.001766 0.001699  0.035513 0.003349 0.001596  0.032094 0.003454 0.001771  0.033753 0.003446 0.001357  0.035042 0.005141 0.001536  0.032805 0.00508 0.002134  0.032013 0.00667 0.001483  0.036434 0.006749 0.001135  0.034572 0.007335 0.001578  0.038139 0.006503 0.001233  0.037272 0.006416 0.002916  0.015781 0.006917 0.007415  0.015526 0.013677 0.007485  0.012243 0.009377999999999999 0.006224  0.012904 0.013811 0.007313  0.015081 0.013549 0.004404  0.020151 0.011262 0.007791  0.009374 0.009351 0.006034  0.013003 0.006125 0.00541  0.01193 0.009311 0.003669  0.016237 0.004238 0.005014  0.015588 0.006468 0.003283  0.023005 0.014133 0.008142999999999999  0.022158 0.007532 0.008248  0.019919 0.008940999999999999 0.007546  0.019998 0.007073 0.008182  0.019964 0.012055 0.0098  0.022502 0.01045 0.008274  0.023514 0.012291 0.008359999999999999  0.021275 0.014011 0.007967999999999999  0.009471 0.013273 0.005447  0.012646 0.0125 0.003793  0.019717 0.013517 0.007467  0.017917 0.013083 0.008127000000000001  0.017594 0.0105 0.007878  0.007148 0.012846 0.007195  0.016447 0.011901 0.008226000000000001  0.017562 0.008554000000000001 0.007801  0.019203 0.014302 0.001168  0.019543 0.014046 0.002656  0.020799 0.013244 0.001251  0.022392 0.014011 0.001489  0.0234 0.01218 0.00133  0.021982 0.012329 0.001136  0.023822 0.010472 0.001358  0.022277 0.010305 0.001236  0.022474 0.010894 0.003237  0.020841 0.011106 0.00157  0.020914 0.009233999999999999 0.001664  0.022586 0.00838 0.002017  0.017623 0.007671 0.001592  0.017285 0.008817999999999999 0.003654  0.019574 0.010564 0.001211  0.018963 0.009157 0.001391  0.016584 0.010174 0.001304  0.018075 0.01105 0.001456  0.019366 0.012522 0.00129  0.017998 0.013253 0.001213  0.016553 0.011924 0.001309  0.016267 0.011213 0.003807  0.016351 0.013861 0.002102  0.02807 0.004023 0.009864  0.026878 0.00376 0.008331  0.022249 0.005662 0.008156  0.025138 0.004006 0.008239  0.026187 0.006778 0.008279999999999999  0.024453 0.006035 0.007651  0.02777 0.006463 0.008244  0.027669 0.004952 0.008448000000000001  0.027946 0.007904 0.00831  0.028891 0.003458 0.008325000000000001  0.031341 0.001746 0.008064999999999999  0.029539 0.002078 0.007252  0.02773 0.002151 0.007897  0.02451 0.001974 0.007913999999999999  0.013862 0.003913 0.007532  0.019651 0.004623 0.008671999999999999  0.023486 0.003981 0.008352999999999999  0.02248 0.002038 0.00781  0.021708 0.004057 0.007342  0.020385 0.002717 0.008121  0.017565 0.002294 0.007196  0.016194 0.003992 0.008189999999999999  0.010119 0.003963 0.005698  0.013016 0.003244 0.004105  0.0065 0.005143 0.007776  0.010449 0.007087 0.00618  0.017642 0.004749 0.007701  0.007205 0.007556 0.00759  0.017951 0.006717 0.008307999999999999  0.030574 0.00339 0.001205  0.031704 0.001723 0.001976  0.028844 0.00322 0.00132  0.029653 0.001804 0.001378  0.028006 0.001756 0.001562  0.027788 0.002223 0.004205  0.026441 0.001891 0.001637  0.027198 0.004207 0.001808  0.025427 0.003315 0.001143  0.024882 0.002597 0.003778  0.02468 0.001645 0.001533  0.026222 0.006351 0.001289  0.024251 0.004697 0.001562  0.024204 0.006936 0.001507  0.027612 0.006097 0.001209  0.02826 0.007681 0.001803  0.029329 0.006284 0.001681  0.029288 0.004614 0.001063  0.030619 0.005148 0.001388  0.007252 0.010539 0.007944  0.011315 0.008625000000000001 0.008300999999999999  0.00254 0.009611 0.007477  0.007629 0.011114 0.003908  0.004907 0.013291 0.00705  0.006518 0.0136 0.003593  0.004429 0.007374 0.007699  0.008243 0.00688 0.004125  0.008944000000000001 0.011931 0.007894999999999999  0.004143 0.01339 0.004044  0.013361 0.009441 0.008240000000000001  0.013195 0.011369 0.007993  0.011996 0.011933 0.009753  0.015234 0.009747 0.008253999999999999  0.014901 0.011586 0.008378999999999999  0.010602 0.014206 0.00776  0.004817 0.010652 0.004802  0.008898 0.013956 0.008109999999999999  0.011335 0.012466 0.007712  0.010825 0.010582 0.007905000000000001  0.004794 0.004019 0.008045  0.005347 0.002537 0.004954  0.004028 0.005551 0.004397  0.005089 0.011273 0.007856999999999999  0.009327 0.009939999999999999 0.008333  0.014784 0.012242 0.001504  0.013781 0.014 0.00143  0.013203 0.012095 0.001163  0.012055 0.013668 0.001309  0.010486 0.014132 0.002535  0.008614 0.013787 0.001682  0.010772 0.012561 0.00123  0.009168000000000001 0.011881 0.001747  0.010993 0.010668 0.001423  0.010521 0.011162 0.00399  0.009095000000000001 0.010198 0.001402  0.009782000000000001 0.008649 0.00208  0.007345 0.004625 0.004343  0.012591 0.00911 0.001339  0.01515 0.010551 0.001278  0.015233 0.008779 0.001665  0.013536 0.010495 0.001759  0.010583 0.00482 0.008156999999999999  0.011324 0.002423 0.007531  0.014269 0.005687 0.007981  0.013633 0.007739 0.007868999999999999  0.010449 0.006621 0.008453  0.011995 0.006856 0.008106  0.012005 0.004011 0.009697000000000001  0.012404 0.005081 0.008049000000000001  0.014143 0.002091 0.007785  0.006957 0.002665 0.007826  0.008857 0.004199 0.008181000000000001  0.009091 0.001992 0.007924  0.008776000000000001 0.006068 0.007925  0.019998 0.00734 0.001662  0.020602 0.007945000000000001 0.003695  0.019415 0.00577 0.001209  0.019873 0.005518 0.003117  0.017363 0.005333 0.001687  0.018476 0.002055 0.001554  0.018804 0.002155 0.004108  0.018397 0.003763 0.00159  0.020737 0.001682 0.00155  0.022378 0.002066 0.001631  0.022051 0.00421 0.001589  0.020292 0.003574 0.001681  0.023697 0.002966 0.001182  0.021895 0.006238 0.00201  0.003969 0.012003 0.009523  0.002383 0.011811 0.007123  0.002307 0.013945 0.00722  0.004533 0.01448 0.008303  0.006324 0.014416 0.008097999999999999  0.005772 0.009127 0.00793  0.001991 0.01349 0.002255  0.003665 0.013585 0.00132  0.002144 0.01095 0.001437  0.002223 0.010546 0.004074  0.001757 0.009240999999999999 0.001474  0.003646 0.009154000000000001 0.001529  0.003825 0.011419 0.001564  0.005672 0.01031 0.001598  0.00708 0.009145 0.001589  0.006597 0.008793 0.004773  0.007432 0.011694 0.001311  0.005479 0.01229 0.001459  0.006836 0.013707 0.001335  0.005261 0.014239 0.001348  0.013994 0.007407 0.001434  0.014106 0.008165 0.003873  0.011436 0.006979 0.00163  0.015262 0.004804 0.001525  0.012152 0.005121 0.001035  0.010998 0.004968 0.003096  0.013508 0.00551 0.001737  0.013355 0.003718 0.001419  0.016128 0.002421 0.00172  0.015313 0.002097 0.004104  0.011323 0.001798 0.001621  0.013578 0.001971 0.001423  0.010668 0.002114 0.004119  0.00804 0.002158 0.001212  0.007786 0.002065 0.00378  0.008848999999999999 0.003539 0.001799  0.009466 0.001796 0.001823  0.01091 0.003511 0.001362  0.010657 0.005264 0.001092  0.008937 0.005713 0.001467  0.003902 0.003994 0.009842  0.002524 0.00495 0.007952000000000001  0.002305 0.006913 0.007948999999999999  0.002533 0.002415 0.007488  0.004716 0.001709 0.007533  0.001859 0.007472 0.001485  0.002628 0.007830999999999999 0.004064  0.003622 0.00704 0.00145  0.00362 0.005026 0.00128  0.002006 0.005632 0.00174  0.001797 0.00371 0.001769  0.003546 0.00246 0.001326  0.003083 0.002538 0.003881  0.001789 0.00189 0.001477  0.005154 0.001698 0.001827  0.006734 0.00148 0.001331  0.006732 0.003251 0.001413  0.005105 0.003924 0.001583  0.007062 0.00467 0.001233  0.006884 0.006401 0.001722  0.00506 0.006145 0.001185  0.00531 0.007813000000000001 0.001926  0.018557 0.004121 0.010355  0.004067 0.009568 0.008592000000000001  </DataArray>
</Points>
<Cells>
<DataArray  type="UInt32"  Name="connectivity"  format="ascii">1680 1708 2470 2474  2188 2215 2419 2420  1804 1805 2402 2477  186 187 212 1424  483 1085 2415 2420  238 2149 2205 2206  2244 2298 2299 2481  1704 2245 2407 2487  890 922 923 2099  1463 1517 1518 2663  823 835 2087 2872  2350 2454 2605 2606  1654 2762 2862 2864  241 242 1981 2206  1813 2470 2473 2485  667 2053 2059 2120  2244 2246 2285 2299  242 260 1980 1981  698 699 759 2063  1409 1564 1565 2862  1114 1124 1139 2495  435 436 2357 2358  1719 1737 2173 2232  544 545 2026 2483  215 1524 2155 2156  556 2493 2495 2496  555 556 1112 2493  656 2579 2582 2584  1070 2384 2387 2388  1408 1418 1419 2816  540 541 2476 2483  1645 2326 2552 2553  1134 2559 2562 2573  1046 1072 1328 2335  1123 2410 2486 2501  1456 1457 1521 2813  2462 2504 2505 2678  2750 2817 2827 2829  820 821 2760 2765  2 188 1273 1401  1279 2821 2823 2871  550 562 1123 2501  2140 2143 2199 2262  2226 2279 2280 2283  2466 2509 2514 2678  2241 2410 2411 2413  1702 2490 2491 2493  282 283 1739 2142  2217 2219 2220 2222  837 990 2766 2767  616 679 2053 2054  2241 2245 2410 2413  444 2307 2355 2357  1715 1830 1831 2473  2715 2792 2794 2844  272 1018 2219 2221  967 968 1306 2859  2512 2522 2683 2691  2460 2462 2510 2580  1823 1824 2468 2532  509 2041 2042 2442  2663 2768 2772 2774  1444 2365 2467 2468  1448 2462 2510 2654  610 611 1830 2473  873 1892 1893 2795  672 673 2598 2601  675 1838 1839 2546  443 444 2011 2357  587 588 1824 2532  318 2254 2255 2256  1643 1699 2631 2632  1846 2466 2519 2660  520 521 537 2030  810 811 2080 2753  1130 2556 2558 2623  12 1397 1398 2820  1590 1591 1678 2473  1127 1129 2554 2555  1446 1510 1511 2511  2162 2166 2167 2170  1469 2463 2581 2596  1427 2130 2133 2173  284 285 1975 2228  168 1173 1470 2595  1016 1051 1052 2342  1608 1630 1694 2205  168 1173 1189 2595  1650 1651 1687 2334  582 2502 2516 2528  1692 1716 2144 2253  2453 2466 2508 2525  1511 2460 2510 2511  1511 2460 2463 2511  1628 2145 2388 2389  1815 1816 2519 2660  1471 1472 2365 2608  2801 2802 2803 2838  2462 2510 2654 2660  1633 2840 2842 2846  1059 1346 2373 2374  225 342 1997 2003  1488 1490 2130 2153  1398 1416 1417 2820  1665 1666 1696 2731  774 1867 2695 2709  814 815 2078 2753  2592 2593 2595 2608  1735 1736 1926 2230  247 248 1978 2206  948 949 2103 2850  936 2845 2846 2847  969 1306 2859 2860  604 605 2033 2535  115 1425 1921 2233  588 2511 2531 2532  242 1730 1731 2135  1730 1944 2135 2231  764 765 1860 2602  1730 2135 2202 2231  1950 1952 1953 2655  2241 2403 2408 2416  241 242 1730 2135  1855 2525 2697 2698  1855 1856 1946 2525  810 2074 2080 2753  2021 2117 2353 2392  241 1730 2135 2202  664 1170 2592 2594  673 2547 2601 2603  663 1169 2590 2594  2174 2179 2189 2190  587 592 2047 2530  1589 1676 1677 2541  1681 1703 2489 2491  609 2539 2541 2542  2318 2325 2543 2566  2348 2367 2472 2538  607 1588 2472 2539  2135 2144 2149 2383  2513 2521 2797 2799  2318 2325 2326 2566  2287 2414 2417 2418  1463 2663 2769 2770  242 243 1980 2206  1430 2174 2179 2189  179 1481 1482 2295  1934 1966 2182 2259  2302 2484 2543 2544  585 586 2530 2531  278 1734 2230 2231  492 1098 2428 2429  1766 2301 2316 2356  195 196 250 1530  2305 2432 2568 2570  751 2680 2684 2685  2174 2189 2190 2265  1619 1644 1698 2553  434 435 1773 2356  2351 2441 2461 2467  822 2742 2760 2765  797 810 811 2080  770 2622 2696 2706  2517 2526 2704 2727  226 1720 2173 2177  2367 2556 2558 2624  2363 2558 2623 2629  2367 2472 2553 2624  2146 2165 2170 2213  1748 1966 2198 2259  490 2426 2427 2428  797 810 2074 2080  4 60 448 1629  321 322 2254 2257  890 1412 2743 2811  2441 2442 2461 2467  509 510 2042 2442  2457 2526 2637 2740  2444 2451 2458 2465  2449 2455 2529 2701  766 1861 2602 2703  1838 1951 2444 2604  2348 2367 2472 2624  1734 1944 2230 2231  2820 2821 2855 2856  798 810 822 2074  797 798 810 2074  1922 1963 2644 2665  1552 1643 1699 2632  1132 1135 1335 2557  96 459 1597 1598  579 2460 2510 2519  1395 1414 2859 2860  1196 2634 2635 2637  1194 1195 1334 2633  401 402 1050 2337  278 1734 1735 2230  1486 2137 2139 2208  668 669 1714 2540  982 1228 1318 2732  435 2356 2358 2359  653 2435 2438 2567  2309 2567 2574 2577  2005 2006 2115 2311  1583 1670 1671 2547  695 762 763 2061  749 2674 2676 2677  199 200 283 1969  1394 1409 2860 2863  335 336 1758 2273  2743 2764 2810 2873  145 146 1455 1880  147 1456 1913 2813  444 2307 2355 2372  1102 2431 2435 2436  483 1085 1086 2420  1721 2189 2190 2265  988 2331 2386 2389  2297 2307 2309 2355  1556 1646 1702 2493  213 994 2154 2155  2364 2613 2615 2642  2291 2294 2296 2424  2297 2307 2355 2372  1968 2182 2391 2394  1098 1118 1120 2500  1141 2567 2568 2569  648 1148 2574 2575  1149 1185 2575 2616  494 1101 2430 2431  667 679 2053 2120  649 1150 1152 2576  2297 2309 2432 2567  249 250 1924 2205  1185 2575 2576 2616  1389 2170 2211 2213  1117 1351 2429 2498  232 1722 2190 2195  2495 2548 2549 2551  1927 1957 1961 2448  679 2053 2054 2120  1178 1180 2611 2640  2242 2246 2427 2500  325 1747 1748 2259  2236 2242 2246 2427  1164 1165 1234 2588  653 1156 2435 2438  1214 1270 2680 2796  382 1761 1762 2310  492 493 1100 2430  408 443 444 2011  1555 1697 2549 2552  885 2734 2806 2808  492 1100 2426 2430  492 1097 1100 2426  509 568 2041 2042  333 2185 2268 2269  556 1114 2495 2496  2443 2463 2586 2590  1644 1674 1698 2553  2443 2586 2588 2590  2361 2443 2465 2593  641 2435 2567 2568  2680 2681 2796 2797  700 758 2063 2064  1642 2450 2631 2723  232 1722 1723 2195  683 1176 1179 2610  47 48 1109 1623  2303 2470 2474 2491  2176 2239 2266 2271  661 2588 2590 2591  153 450 1329 2375  2583 2585 2586 2590  368 369 381 2004  225 2177 2178 2196  1585 1672 2540 2600  486 1089 1091 2423  669 670 1585 2600  670 1584 1585 2600  487 2422 2423 2425  486 487 1090 2422  231 232 1722 2190  938 1300 1301 2849  341 2267 2270 2275  668 669 2059 2598  2250 2422 2423 2425  667 2059 2120 2598  442 2307 2352 2370  669 2058 2059 2598  1787 1788 2397 2398  736 2503 2648 2661  2058 2059 2120 2598  1031 2284 2417 2420  764 2456 2602 2702  1819 2524 2527 2701  2218 2282 2284 2417  765 1860 1861 2602  133 1442 1793 2441  2450 2456 2457 2604  1860 1861 2602 2603  2526 2634 2722 2740  1799 1942 2444 2458  1057 1066 1068 2385  580 2050 2051 2502  2652 2653 2800 2833  2240 2241 2245 2400  764 1860 2602 2604  1951 2444 2449 2604  700 758 770 2064  680 1175 2592 2609  2623 2624 2625 2626  1838 1839 2444 2546  758 770 2064 2693  586 1823 2464 2532  2410 2413 2499 2501  1582 1583 1670 2547  1472 2607 2608 2618  691 1472 2608 2618  680 1174 1188 2608  2287 2289 2417 2418  1174 1188 1353 2608  2460 2502 2528 2531  2138 2196 2197 2200  2350 2362 2364 2613  2349 2364 2613 2615  2308 2317 2352 2369  2308 2575 2576 2617  758 2063 2064 2693  2240 2241 2245 2413  316 1742 1751 2203  1183 2572 2614 2616  804 816 2077 2078  103 1605 1716 1915  854 870 2090 2091  1485 1494 2137 2225  2317 2572 2575 2617  2720 2748 2763 2825  2505 2509 2586 2587  1021 1027 2223 2227  496 1104 2436 2439  1507 2346 2351 2619  180 1482 1483 2278  702 768 769 2065  2137 2208 2222 2225  2016 2017 2114 2357  479 1080 2410 2411  798 822 2074 2075  1626 1652 2333 2334  2457 2518 2737 2738  602 2471 2535 2543  775 2708 2711 2712  1444 1509 2365 2468  49 1327 1558 1624  630 2548 2549 2550  2553 2554 2556 2625  1766 1773 2301 2356  1442 1507 2346 2441  1441 2308 2346 2371  1113 1336 2494 2497  1821 1947 2465 2529  706 1192 2623 2629  1192 2623 2626 2629  50 476 1559 1624  1525 2131 2156 2160  2450 2456 2602 2604  2318 2325 2367 2471  509 510 568 2042  2137 2208 2210 2222  990 2692 2766 2767  985 1128 1191 2625  968 969 1306 2859  693 694 764 2060  1128 2554 2556 2625  1437 1438 1502 2315  977 2867 2869 2870  1943 2302 2484 2544  1774 1834 1939 2359  1225 2722 2723 2725  977 1315 2867 2870  1581 1669 2703 2704  986 1112 1124 2495  661 1163 1166 2590  718 1203 1205 2558  1434 1498 2183 2274  1559 1705 2403 2406  584 585 2528 2530  2486 2487 2488 2489  706 718 1204 2629  478 479 1078 2409  715 716 1201 2639  152 153 1329 1526  1572 1573 1661 2791  762 2456 2699 2700  2415 2416 2420 2421  967 2857 2858 2859  1467 2505 2582 2673  2240 2245 2246 2413  519 520 538 2029  783 1872 1873 2721  671 2598 2600 2601  814 2646 2752 2753  732 2067 2073 2658  459 471 1597 2353  2349 2350 2364 2613  2462 2466 2503 2678  741 1850 1963 2668  977 2867 2868 2869  896 2745 2810 2813  973 974 1310 2864  2743 2764 2815 2873  144 1454 1879 2756  2241 2353 2400 2401  1853 2656 2657 2669  733 2507 2648 2659  1954 2649 2718 2720  468 2117 2353 2399  634 1128 1130 2556  1844 2655 2656 2657  719 732 2067 2073  593 594 2048 2530  812 2079 2080 2753  1416 2820 2855 2856  2349 2613 2614 2615  2801 2802 2804 2807  738 2658 2661 2664  783 1873 2657 2721  2349 2350 2613 2614  2466 2508 2509 2514  941 942 961 2106  1313 2843 2845 2866  720 732 744 2067  746 747 2672 2673  583 584 595 2049  2505 2509 2587 2676  2302 2318 2543 2566  2504 2672 2679 2688  1537 1540 1541 2157  506 1800 2458 2461  1222 2670 2688 2689  2022 2023 2117 2353  1365 2672 2679 2688  35 36 983 1617  1489 2750 2812 2816  737 1849 2654 2661  1408 1419 2812 2816  2504 2674 2675 2678  856 868 869 2091  2069 2070 2123 2658  2187 2238 2393 2394  1513 1514 2503 2661  734 2072 2073 2658  2238 2395 2399 2416  711 2632 2633 2635  2353 2390 2401 2403  587 588 2531 2532  743 1851 1852 2666  738 1450 2661 2664  1441 1442 2346 2371  1440 1441 2308 2370  2351 2441 2447 2461  2146 2344 2383 2385  316 317 2254 2255  1057 1068 2385 2386  2381 2382 2383 2385  2508 2514 2681 2797  2520 2668 2754 2755  736 2648 2658 2661  900 2764 2810 2873  927 1302 2834 2848  870 1570 2784 2794  2520 2666 2668 2754  947 948 2102 2850  2682 2683 2685 2796  2150 2377 2378 2383  751 752 1214 2685  2677 2678 2680 2681  2522 2678 2679 2680  870 871 2784 2794  820 2753 2759 2760  749 750 1211 2677  702 703 768 2065  2504 2522 2678 2679  2349 2350 2364 2452  2509 2514 2678 2681  749 1210 2675 2677  2508 2513 2514 2797  2506 2512 2666 2691  847 848 1252 2782  2150 2378 2379 2383  1220 1221 2689 2692  837 2766 2767 2768  2763 2867 2869 2870  1277 1305 2821 2857  2778 2867 2868 2869  820 821 2075 2753  1215 1217 1367 2682  1301 2832 2848 2849  2763 2778 2867 2869  303 316 1990 1996  2745 2764 2810 2811  1522 2129 2151 2233  889 890 1896 2743  1000 1003 2167 2168  238 239 2149 2206  1251 1253 2779 2781  1254 1372 2686 2780  754 1218 2686 2690  1218 1254 1372 2686  2143 2146 2161 2344  2377 2378 2383 2384  236 237 2196 2200  1246 1249 1370 2774  1114 1115 1139 2496  1866 1952 2655 2695  1418 1419 2816 2819  2762 2763 2778 2867  1070 2373 2384 2388  1541 2149 2157 2376  1070 1346 2373 2384  1058 1070 1346 2373  2463 2581 2583 2590  2242 2248 2426 2434  1721 1760 2189 2265  1838 1839 1949 2444  948 954 955 2103  1942 1947 2444 2465  1947 1951 2444 2449  2683 2691 2781 2831  1785 1786 1968 2394  2382 2383 2385 2387  289 1740 2202 2234  1003 1338 2152 2168  1629 1630 1707 2157  1947 1949 1951 2444  1721 1722 2190 2265  464 1785 1786 2394  2451 2457 2591 2638  2236 2240 2272 2327  1346 2373 2374 2384  2304 2359 2368 2534  687 688 1184 2619  1777 2360 2366 2448  2517 2727 2729 2731  1640 1666 1696 2731  2317 2352 2366 2369  967 1306 2858 2859  898 2096 2097 2810  2526 2634 2722 2723  2513 2515 2695 2711  1384 2221 2281 2284  1807 1808 2323 2481  2515 2517 2622 2731  1571 1660 2784 2791  231 232 2000 2178  870 871 2784 2789  538 2029 2030 2118  1639 2716 2840 2842  425 426 460 2021  1636 1695 2838 2839  511 547 2025 2031  2707 2716 2784 2791  898 899 2097 2810  899 2097 2098 2810  2750 2811 2812 2816  1572 1660 1661 2791  1796 1927 2448 2452  1197 1239 2637 2638  503 1796 1797 2452  2097 2098 2127 2810  1553 1619 1644 2625  735 736 2503 2660  946 953 965 2108  541 2475 2478 2479  512 513 545 2026  1505 1506 2308 2576  2515 2622 2706 2731  790 1228 1230 2730  754 1217 1218 2686  970 1308 2860 2863  1231 1267 2734 2735  2307 2308 2309 2352  1440 2307 2308 2370  577 578 1814 2510  1959 2324 2368 2534  2457 2638 2738 2740  1628 1707 2145 2388  2613 2615 2639 2642  2107 2108 2128 2850  132 1779 1780 2371  2526 2729 2738 2739  2188 2221 2284 2420  795 1235 2738 2739  511 523 547 2031  1812 1813 2473 2485  1167 1168 1360 2591  671 2547 2600 2601  578 579 1815 2510  1239 2637 2638 2740  2504 2506 2648 2664  795 2738 2739 2740  583 2502 2528 2530  2361 2365 2459 2464  2748 2777 2849 2869  446 1563 2373 2388  1479 1480 1500 2250  873 1892 2793 2795  2860 2861 2862 2863  1794 2371 2441 2446  872 2089 2090 2789  2346 2441 2446 2447  1775 1959 2368 2534  2349 2350 2447 2452  1475 1505 2574 2576  167 1469 1470 2596  862 874 2789 2790  854 855 870 2091  435 1773 1774 2359  614 2533 2543 2544  581 582 2516 2524  1850 1877 1963 2668  1316 2869 2870 2871  2102 2108 2128 2850  741 1922 1963 2665  2823 2824 2825 2871  2650 2653 2831 2836  2350 2361 2609 2612  1779 1780 2370 2371  2578 2687 2688 2689  2646 2647 2663 2752  2520 2644 2752 2755  1510 1511 2463 2511  2287 2290 2291 2294  810 1874 1884 2742  1954 2649 2742 2765  982 1264 2805 2808  2662 2749 2759 2760  1655 2762 2853 2862  774 1867 1868 2709  474 475 1075 2406  2762 2862 2864 2867  1382 2612 2638 2640  156 157 901 1459  1654 1655 2762 2862  862 863 2788 2790  502 2360 2446 2447  2770 2772 2773 2775  11 1396 1397 2855  1462 1463 2769 2770  2662 2770 2771 2773  1985 1986 2111 2267  1518 2662 2663 2770  2455 2620 2697 2699  1251 1253 1388 2781  1253 1372 1388 2781  1931 1955 1956 2643  2683 2685 2686 2687  1460 2746 2828 2829  2686 2687 2690 2691  498 499 2043 2442  88 1589 1590 2541  228 229 352 2002  1329 1526 2160 2375  1986 2111 2267 2268  945 946 2108 2850  946 2102 2108 2850  1549 1615 1696 2732  641 653 1156 2435  769 770 2622 2706  1384 2221 2284 2420  185 186 1005 1488  759 1855 2697 2698  891 2099 2100 2810  811 812 2751 2752  218 219 2158 2159  1271 1272 1374 2817  2663 2768 2769 2772  811 812 1875 2751  1088 2335 2404 2419  777 778 833 2086  1885 1894 2742 2788  385 2311 2313 2314  188 1408 1489 2816  863 1886 2785 2786  2728 2729 2730 2731  2761 2850 2851 2853  1479 2250 2423 2434  1806 1807 1958 2480  1413 1418 1419 2819  68 1711 1890 2794  1656 2762 2792 2854  1807 1958 2327 2480  1460 2746 2771 2828  1280 2823 2824 2826  2645 2650 2651 2831  950 1566 2853 2854  162 990 1221 2692  780 781 823 2872  1258 2682 2798 2800  143 815 1452 1878  877 1258 2798 2800  540 541 2475 2476  217 2158 2159 2160  1257 2798 2800 2803  1704 2245 2403 2407  675 676 1839 2546  1086 2419 2420 2421  1192 1193 2626 2629  877 1257 2798 2800  1757 1758 1771 2251  2796 2797 2799 2809  176 177 1479 2437  501 502 2044 2442  333 2185 2243 2272  33 787 1550 1616  677 678 2347 2545  2523 2799 2806 2807  2441 2442 2447 2461  982 1264 1266 2808  982 1264 1326 2805  1248 2774 2776 2777  1348 2188 2419 2420  2523 2799 2806 2809  1898 2667 2749 2758  2039 2040 2119 2442  246 1605 1716 1915  884 1263 2805 2806  1521 2745 2750 2812  884 885 2806 2808  2515 2523 2806 2809  2215 2334 2336 2405  2145 2157 2387 2388  1208 2582 2673 2674  225 1719 1728 2232  884 885 1266 2808  668 2540 2597 2599  2188 2215 2338 2419  2215 2335 2337 2419  134 1443 1444 2467  225 226 2003 2178  885 1266 1267 2734  885 1267 2734 2806  244 245 1979 2206  2245 2407 2486 2487  2042 2043 2119 2442  820 1881 1882 2749  1021 1027 1028 2223  1519 2662 2667 2746  819 2749 2756 2758  2187 2215 2238 2394  1412 1413 1419 2811  219 2158 2159 2162  905 1398 1399 2818  1687 2215 2258 2390  2041 2042 2119 2442  439 440 1778 2369  1047 2334 2336 2337  984 1553 2625 2626  1135 2557 2561 2563  2317 2349 2572 2617  503 2360 2447 2452  1277 2821 2857 2871  1219 1222 2688 2689  891 892 1406 2811  2682 2798 2799 2800  881 1548 2801 2804  802 803 817 2077  1969 1970 2109 2228  2717 2747 2761 2763  2161 2339 2341 2343  185 1487 1488 2172  1047 2334 2337 2340  912 913 1284 2829  1856 1946 2524 2525  910 1280 2823 2826  1046 1328 2335 2336  238 239 251 1982  1062 1063 2377 2380  1380 1381 2777 2849  911 2826 2827 2828  1818 1856 1946 2524  1670 1671 1699 2631  1046 1320 1328 2336  1448 1513 2462 2654  730 734 2072 2073  222 1003 2167 2171  448 1527 2373 2374  340 341 1912 2189  1687 2215 2257 2334  582 1818 1819 2524  1818 1819 1856 2524  1320 1560 1626 2336  287 1973 1974 2228  2192 2215 2334 2338  30 982 1326 1549  1229 2728 2729 2730  966 1305 1317 2857  820 821 2753 2760  1547 1636 1695 2838  930 931 1291 2833  2716 2833 2837 2839  1227 1333 2724 2729  894 914 2095 2101  981 1547 2801 2838  2443 2588 2590 2591  438 439 1777 2366  1379 2834 2847 2848  2163 2192 2194 2261  980 1298 1313 2843  1686 1705 2215 2403  273 274 2222 2224  1560 2334 2336 2405  22 1297 2843 2846  1312 2866 2867 2868  1891 2792 2793 2794  127 385 1437 1763  1311 2843 2865 2866  1207 1210 2672 2675  950 1566 1567 2854  225 237 2178 2196  2717 2762 2778 2792  2184 2236 2294 2424  950 2761 2853 2854  948 2102 2103 2850  709 710 1552 2632  1527 1533 1540 2374  2102 2103 2128 2850  894 895 914 2095  948 949 2850 2853  398 1045 2332 2333  390 391 2006 2311  390 391 1768 2323  908 1279 2821 2823  979 1276 2820 2855  1828 1829 1835 2348  1829 2348 2472 2540  31 982 1549 2732  1318 1615 2728 2732  33 787 788 1550  837 1242 2767 2768  606 1828 1829 2348  21 980 1610 2865  1311 1313 2843 2866  980 1311 1325 2865  52 1328 1560 2405  2163 2187 2192 2261  2778 2844 2845 2866  2778 2866 2867 2868  391 1768 1769 2323  974 1311 2865 2866  2163 2259 2260 2261  1938 2301 2321 2482  1614 1638 2804 2805  606 1829 2348 2472  81 1582 1583 1918  1416 2819 2820 2856  2298 2301 2321 2482  2466 2507 2508 2514  1415 1416 2855 2856  1767 2247 2301 2321  1799 1840 2454 2605  966 967 1305 2857  1560 1626 2334 2336  505 1798 1840 2454  1809 1938 2321 2482  1840 2454 2605 2606  1279 1316 1317 2871  677 1798 1841 2606  1460 1461 1519 2771  676 677 1840 2605  1316 1317 2870 2871  390 2247 2321 2323  676 1839 1840 2605  1164 1233 1234 2733  822 2074 2075 2753  2129 2130 2142 2148  399 1045 1047 2333  1504 2308 2309 2577  2129 2130 2131 2148  554 555 1319 2490  2182 2187 2215 2338  212 1424 2152 2154  2247 2298 2301 2321  1651 1652 1689 2334  397 1044 1045 2332  2649 2662 2744 2749  324 1746 1747 2259  1724 1945 1966 2198  2163 2192 2194 2338  248 254 1977 1978  2248 2285 2298 2321  1490 2129 2130 2153  1538 2131 2132 2156  2236 2251 2327 2328  2129 2130 2132 2153  1891 1902 1909 2792  32 33 788 1550  766 2602 2702 2704  967 968 1307 2859  2163 2187 2192 2338  286 1528 1532 2151  1718 1802 1803 2468  448 1527 1629 2373  1601 1688 1689 2256  240 262 1981 1982  1437 1502 2249 2315  2139 2169 2172 2209  1013 2212 2213 2216  2147 2188 2221 2342  1018 1019 2219 2281  332 2267 2268 2269  2130 2139 2169 2172  2137 2138 2147 2212  936 1297 2845 2846  673 674 2601 2603  1437 2249 2314 2315  1764 1765 1782 2315  1765 1782 2315 2316  732 733 1844 2656  2317 2559 2562 2573  1078 1081 2408 2411  1441 1780 2370 2371  610 2473 2541 2542  1844 1865 2655 2657  242 243 259 1980  733 1844 2507 2656  655 1158 2579 2581  777 832 833 2086  2137 2139 2210 2212  97 98 1599 1911  1696 2728 2731 2732  1549 1614 1632 2805  2215 2408 2416 2421  128 1764 1781 2315  425 461 2020 2021  496 1105 2437 2439  74 777 778 1575  2307 2355 2357 2358  2362 2545 2605 2606  762 763 2061 2693  813 814 2752 2755  1844 1865 1953 2655  2137 2138 2139 2212  645 646 1145 2571  503 504 2447 2452  2133 2136 2138 2196  665 1171 1173 2595  822 1883 1884 2742  810 2751 2752 2760  1224 2722 2724 2739  2728 2730 2731 2732  2645 2718 2742 2788  188 189 1408 1489  810 822 2742 2760  1405 1413 1422 2743  78 768 769 1579  814 2644 2646 2752  890 891 1412 2811  1895 1905 2747 2852  1503 2297 2307 2372  782 1871 1872 2721  110 1411 1717 1906  945 1907 2851 2852  1404 1907 2851 2852  502 503 574 2045  642 1141 1143 2569  641 1141 2567 2568  579 1815 2510 2519  1270 2681 2796 2809  248 1607 1917 2205  491 492 1097 2426  2136 2138 2191 2196  2304 2305 2318 2562  1608 1917 1924 2205  1257 1260 1373 2803  1141 1356 2567 2569  752 1213 1216 2684  1607 1608 1917 2205  2144 2145 2149 2383  1295 1296 2840 2847  2145 2149 2157 2383  1874 1875 1956 2751  111 1405 1717 1896  1954 2649 2718 2742  2715 2716 2835 2842  1465 1466 1514 2671  908 1275 2821 2822  1489 1521 2750 2812  409 444 445 2012  656 2579 2583 2584  1863 1864 1928 2706  1877 1878 1963 2644  775 2709 2710 2711  312 320 321 1994  460 461 2353 2390  1864 1868 1928 2709  2308 2309 2574 2577  1598 1599 1686 2390  614 1833 2533 2544  1110 2488 2492 2501  1864 1928 2706 2709  1800 1942 2458 2465  75 1577 1713 2710  775 1868 1928 2709  2349 2360 2446 2447  2302 2305 2318 2359  1945 2176 2266 2271  1576 1577 1664 2710  1693 1694 2149 2157  1693 2145 2149 2157  1943 2302 2482 2484  331 332 2243 2269  1988 1989 2111 2268  1693 2144 2145 2149  733 734 2073 2658  2298 2301 2302 2482  607 1587 1588 2472  1190 2592 2595 2608  1694 2149 2157 2205  1993 1994 2113 2254  1694 2149 2205 2206  1693 1694 2149 2206  2318 2320 2562 2566  664 665 1171 2595  642 643 1142 2568  133 1442 1443 2441  605 2348 2471 2538  2453 2466 2516 2525  1817 1946 1950 2525  1817 2466 2516 2525  1950 2466 2507 2659  1159 1161 1209 2674  818 1879 2756 2758  1534 1542 2201 2234  1417 1418 2818 2819  2146 2161 2343 2344  1846 1950 2466 2659  277 2202 2229 2231  1842 1961 2347 2536  239 240 262 1982  1939 2302 2533 2544  1961 2347 2448 2536  1957 1961 2324 2448  2350 2362 2613 2640  2174 2189 2265 2270  2143 2197 2199 2200  1427 1428 2133 2173  1658 2715 2784 2842  2303 2475 2476 2479  1735 1926 1944 2230  2303 2319 2470 2485  333 1986 1987 2268  2139 2209 2210 2212  1004 2169 2171 2172  2279 2280 2282 2283  779 1575 2712 2713  2347 2364 2448 2536  279 1971 1972 2228  530 531 609 2035  5 1531 1608 1924  395 396 1044 2329  204 279 1971 1972  2192 2194 2334 2338  291 340 1983 1984  1983 2111 2267 2268  392 2306 2323 2328  382 383 2310 2313  339 1983 2267 2268  538 2030 2118 2476  339 340 1983 2267  732 744 2648 2658  538 539 2029 2118  2298 2301 2302 2305  340 1983 1984 2267  1994 1995 2113 2254  310 321 322 1994  937 2845 2848 2849  322 1993 1994 2254  321 322 1994 2254  320 321 1994 2254  1351 2498 2565 2570  977 1316 2869 2870  980 1311 1313 2843  1438 1503 2297 2372  320 1994 1995 2254  789 1228 2730 2732  2079 2080 2125 2753  2067 2073 2123 2658  694 695 763 2061  2187 2192 2215 2338  2247 2298 2301 2305  725 739 740 2070  1435 1500 2235 2313  74 777 1575 1576  620 674 675 2056  583 2049 2502 2530  1845 1846 1950 2659  740 1450 2664 2665  392 393 2005 2311  1455 1897 2667 2814  382 383 2010 2311  391 2005 2006 2311  1606 1693 1694 2206  772 1865 2655 2657  153 450 1533 2375  1805 2402 2477 2478  417 418 440 2016  416 417 439 2016  1035 1038 1342 2288  416 439 2015 2016  1037 1386 2291 2424  2061 2062 2122 2693  1442 2346 2371 2441  1601 1688 2256 2257  602 603 2471 2534  1488 2152 2153 2171  418 441 2016 2017  418 440 441 2016  226 227 353 2003  1973 1974 2109 2228  542 543 2027 2483  1461 1462 1518 2770  542 2027 2028 2483  544 2026 2027 2483  777 1575 1576 2712  543 544 2027 2483  1726 1749 1932 2197  2037 2038 2116 2535  2032 2038 2116 2535  602 614 2038 2535  449 1059 1060 2374  602 2032 2038 2535  613 614 2038 2535  613 2037 2038 2535  274 1020 2222 2225  2745 2750 2811 2812  29 30 1326 1614  2240 2246 2287 2413  1037 1039 1092 2296  273 274 1020 2222  219 1000 2158 2162  583 584 2049 2530  1522 2129 2132 2151  337 338 1989 2268  2049 2121 2502 2530  2745 2810 2811 2812  384 385 1436 2313  216 217 995 2156  1692 2144 2145 2253  2136 2190 2191 2220  1563 1628 1707 2388  582 583 596 2049  582 596 2049 2050  1744 1783 1914 2258  996 998 1063 2380  2135 2149 2150 2383  361 2282 2289 2417  1061 2377 2378 2384  2150 2157 2376 2377  1606 1694 2205 2206  2136 2137 2138 2147  1538 1542 2131 2151  1631 1636 1662 2802  1736 1926 2134 2200  167 1173 1470 2596  1716 1742 1743 2253  1588 1675 2472 2539  1018 1384 2221 2281  2131 2162 2166 2167  1719 1728 1737 2232  1035 1038 2288 2293  181 1332 1484 2226  123 338 1432 1433  1086 1348 1385 2420  1587 1588 1675 2472  2652 2802 2803 2838  2176 2181 2283 2284  1086 1088 2419 2421  233 2191 2193 2195  2130 2133 2141 2232  268 269 1012 2211  1433 1497 1498 2180  232 233 2178 2193  2215 2334 2337 2338  473 2404 2405 2406  1600 1601 1688 2257  739 740 2070 2658  212 213 1424 2154  743 744 2068 2658  728 736 2071 2072  2223 2226 2279 2283  424 425 461 2020  728 736 737 2071  424 461 462 2020  1054 1055 1341 2343  1495 2174 2175 2226  775 2085 2126 2712  775 2710 2711 2712  2286 2287 2289 2290  423 424 462 2020  771 2082 2126 2708  2081 2087 2126 2872  423 462 2019 2020  1485 2137 2208 2225  398 399 1045 2333  447 448 1059 2373  1511 1512 2510 2580  282 1969 1970 2228  2215 2335 2336 2405  771 783 826 2082  360 361 1031 2282  243 258 259 1980  1497 2175 2180 2275  2140 2144 2204 2344  771 826 2082 2083  337 1433 2180 2274  865 2707 2714 2785  2092 2093 2124 2789  2093 2094 2124 2789  1869 1870 1888 2714  330 331 2267 2269  866 2092 2093 2789  951 952 958 2104  479 1079 1080 2410  2019 2020 2117 2392  1972 1973 2109 2228  2220 2223 2224 2281  1341 2213 2341 2343  1060 1061 1346 2374  461 2021 2353 2392  1591 1813 2470 2473  1478 2249 2438 2439  1652 1689 1706 2330  1752 1760 2265 2270  331 1754 2243 2271  422 423 463 2019  1689 2252 2256 2330  461 2020 2021 2392  952 958 2104 2105  122 340 1432 2189  423 462 463 2019  1349 1393 2412 2499  2174 2223 2226 2283  746 1206 1207 2672  2175 2180 2181 2269  1343 1349 2292 2412  2489 2492 2494 2501  784 2722 2739 2740  1081 1084 1347 2408  2302 2319 2484 2543  557 558 1116 2497  2147 2216 2217 2342  1482 1483 1497 2277  2411 2412 2413 2414  2414 2415 2416 2417  365 2293 2295 2296  952 2104 2105 2850  2403 2406 2408 2409  295 330 331 1985  951 952 2104 2850  387 2306 2314 2316  2513 2797 2799 2809  2431 2432 2568 2570  74 75 777 1576  1766 1772 1773 2356  2246 2499 2500 2501  436 1774 1775 2359  1393 2410 2412 2499  2410 2411 2412 2413  561 1120 2499 2500  2006 2007 2115 2311  2745 2750 2757 2811  2163 2176 2182 2198  1076 1078 2408 2409  2286 2287 2292 2412  378 379 384 2009  2131 2148 2151 2229  75 776 777 1576  176 1478 1479 2439  776 777 1576 2712  1057 2343 2345 2385  2129 2131 2132 2151  2242 2425 2426 2434  2163 2198 2259 2260  2247 2248 2321 2323  1804 2354 2402 2477  779 2126 2708 2712  1682 2469 2477 2489  779 2087 2126 2872  779 2708 2712 2713  779 2126 2708 2872  2163 2197 2198 2260  2135 2150 2201 2202  2150 2159 2379 2380  759 1854 1855 2698  160 839 1462 1463  2131 2150 2159 2379  1067 1070 1346 2384  265 266 1331 2207  2192 2194 2255 2261  1345 1390 1392 2381  54 1320 1626 2333  644 1134 1144 2562  356 1024 1026 2278  2129 2130 2131 2132  2188 2220 2221 2284  394 1056 2329 2345  2743 2764 2810 2811  2337 2338 2339 2342  2131 2150 2166 2379  766 767 2066 2693  1746 1934 2259 2391  1010 1389 2170 2211  1047 1050 1344 2340  405 2339 2343 2345  2131 2162 2166 2379  2131 2159 2162 2379  2138 2146 2161 2213  1769 1770 2327 2328  2724 2725 2726 2727  1992 1993 2113 2254  2138 2141 2146 2213  2134 2143 2199 2200  1584 1671 1672 2600  2134 2138 2143 2146  1097 1100 1350 2426  324 1992 1993 2254  2134 2138 2141 2146  2134 2140 2143 2146  2299 2474 2489 2491  389 1766 2247 2316  377 378 385 2009  1706 2330 2331 2389  1562 1706 2331 2389  2140 2146 2344 2383  2378 2379 2381 2383  1511 2460 2463 2580  1815 1848 2654 2660  2383 2385 2386 2387  214 215 1523 2155  1991 1992 2113 2254  214 215 994 2155  765 766 2066 2693  1440 1504 2307 2308  725 726 739 2070  2163 2182 2187 2338  994 2154 2155 2156  2145 2386 2387 2389  433 2355 2356 2358  448 449 1527 2374  1009 1010 2169 2209  2162 2165 2166 2379  2305 2309 2432 2568  2132 2154 2156 2168  2241 2245 2401 2403  1627 2330 2331 2332  2181 2186 2243 2271  231 232 349 2000  330 331 1753 2239  466 2018 2024 2117  1000 1003 1338 2168  427 428 471 2022  851 852 872 2089  1003 1006 1338 2152  2021 2022 2117 2353  1555 2549 2550 2552  2249 2297 2316 2432  2131 2158 2159 2162  1493 1494 2136 2137  704 705 766 2066  405 2339 2341 2343  1479 1501 2250 2434  1040 1481 2295 2296  788 1550 2726 2728  2161 2339 2341 2342  2236 2242 2300 2328  402 403 2337 2342  1479 1501 2249 2434  2143 2164 2262 2263  2157 2377 2383 2384  1464 1516 2647 2692  1141 1143 1356 2569  2298 2429 2498 2500  2378 2381 2382 2383  2181 2185 2243 2269  404 405 1053 2339  1768 1808 1809 2321  2194 2339 2340 2345  16 1423 1425 2233  900 2764 2815 2873  2161 2338 2339 2342  404 405 2339 2341  2247 2306 2314 2434  2317 2360 2366 2448  2512 2520 2666 2691  412 413 435 2014  609 610 2541 2542  333 334 2185 2268  442 443 2011 2357  226 1719 1720 2173  2297 2305 2309 2432  1479 1501 1502 2249  434 435 2013 2357  2304 2305 2356 2359  35 983 1617 2723  769 1579 1863 2706  1632 1665 1696 2731  176 1479 2437 2439  465 2395 2398 2399  1404 1411 1420 2852  477 1076 1078 2409  213 1330 1424 2155  397 398 1045 2332  648 2574 2575 2576  1784 2258 2391 2393  149 214 215 1523  1443 1444 2365 2467  1493 2136 2137 2139  683 684 1180 2613  225 226 1719 2173  461 1911 2258 2390  225 1719 2173 2232  225 2133 2200 2232  2318 2471 2533 2534  444 445 2355 2372  334 335 2185 2251  489 490 2424 2426  1330 1424 1523 2155  683 684 2610 2613  1171 1190 2592 2595  17 1522 1523 2155  17 1423 1424 2155  17 1423 1522 2155  791 792 1232 2733  2008 2009 2115 2311  880 1547 1613 2801  2245 2400 2401 2402  635 1132 2555 2557  2245 2246 2413 2501  518 539 540 2029  28 881 1548 1613  1648 1682 1703 2489  29 1326 1614 2804  1586 1587 1674 2472  2242 2426 2427 2428  462 2019 2020 2392  225 2133 2173 2232  1776 1777 1957 2366  28 29 882 1548  509 1803 2467 2468  760 1856 2697 2699  29 1548 1614 2804  588 590 591 2047  2215 2238 2394 2416  38 39 984 1553  759 2620 2696 2698  39 1553 1619 2625  39 984 1553 2625  976 977 1312 2868  471 1597 2353 2401  732 733 2648 2656  1945 1968 2182 2271  1684 2245 2401 2403  890 891 923 2099  1791 1792 2354 2401  845 2774 2777 2779  1754 1786 2186 2271  1846 2466 2659 2660  279 280 1971 2228  2504 2514 2522 2678  1753 1945 2266 2271  62 63 1402 1565  659 2587 2588 2589  2131 2202 2229 2231  1942 1947 1949 2444  1753 1935 1945 2271  516 541 542 2028  1935 1945 1968 2271  288 289 1973 2228  549 1592 1813 2470  2163 2182 2187 2259  1970 1971 2109 2228  750 751 2679 2680  2182 2187 2259 2391  1784 1785 2391 2393  82 670 671 1584  1746 1784 1785 2391  1746 2187 2259 2391  2130 2141 2167 2169  669 2598 2599 2600  705 765 766 2066  461 2238 2353 2390  769 2693 2694 2705  2133 2136 2177 2196  249 1917 1924 2205  248 1606 1607 2205  247 248 1606 2206  248 1606 2205 2206  7 16 190 1921  7 115 1425 1921  605 2348 2471 2537  2292 2412 2413 2499  2186 2237 2395 2397  2176 2191 2195 2198  2218 2280 2282 2288  1590 1678 2473 2541  651 1153 2574 2577  2308 2309 2317 2571  1142 2431 2568 2570  2218 2280 2282 2283  2246 2292 2413 2499  475 1075 1076 2406  1441 1442 1506 2346  992 1004 1009 2172  234 2191 2197 2198  234 2191 2196 2197  2141 2170 2211 2213  697 760 761 2062  1727 1932 2197 2199  2047 2121 2502 2530  578 579 2460 2510  2627 2628 2632 2633  577 578 2460 2510  585 586 1822 2464  2247 2249 2316 2432  791 1230 2730 2734  2361 2591 2609 2612  789 1229 2728 2730  2521 2621 2652 2800  2526 2722 2724 2725  1562 1653 1706 2389  749 1211 2676 2677  2453 2455 2529 2701  781 1871 2714 2719  233 234 2191 2193  104 105 247 1606  529 607 608 2035  886 887 1268 2809  673 1836 1837 2603  822 1883 2742 2765  161 839 1463 2767  161 162 990 1464  161 990 1464 2767  1492 2130 2133 2139  2144 2145 2344 2383  2164 2204 2262 2344  1751 2203 2204 2262  1472 1473 1507 2618  2144 2145 2164 2344  2144 2164 2204 2344  502 503 2045 2442  2403 2404 2406 2408  2146 2379 2381 2383  2135 2140 2144 2204  2450 2451 2546 2604  1732 1751 2144 2204  269 1011 1014 2212  1671 1709 2628 2631  475 476 1076 2406  183 264 1485 1486  908 2821 2822 2823  275 276 1022 2225  183 1022 1485 2225  268 269 2211 2212  2350 2364 2452 2606  1674 1675 2472 2553  268 2209 2211 2212  243 2135 2144 2204  268 2209 2210 2212  239 262 263 1982  243 1731 1732 2204  268 269 1011 2212  1237 1360 2638 2738  618 677 2054 2055  2575 2576 2616 2617  268 1011 2210 2212  2651 2774 2777 2779  2450 2457 2526 2637  1837 1859 1860 2604  2174 2175 2226 2283  2443 2465 2528 2529  2130 2141 2166 2167  274 1019 1021 2224  476 2403 2406 2409  2130 2131 2132 2167  1401 1408 1418 2816  1517 1518 2646 2663  1405 1411 1422 2743  865 2707 2789 2790  2350 2362 2364 2606  2512 2521 2656 2669  1855 1952 2525 2698  1750 1751 1967 2262  127 385 1436 1437  1487 2130 2139 2172  1730 1731 1944 2135  1898 2667 2741 2749  2455 2620 2697 2698  1515 2506 2644 2647  2131 2156 2158 2160  1538 2131 2132 2151  234 235 2178 2196  1933 2140 2199 2204  2460 2462 2466 2586  234 2191 2193 2196  1753 2239 2266 2271  696 761 2061 2062  1578 1579 1863 2706  2526 2722 2739 2740  1164 1234 2588 2733  1498 2183 2184 2294  2060 2061 2122 2693  1856 2524 2697 2701  7 16 1425 1921  115 284 1425 2233  2180 2183 2185 2294  2522 2684 2685 2687  579 2460 2516 2519  2174 2176 2266 2283  791 1229 2729 2730  2174 2266 2270 2283  281 1738 2142 2173  741 1963 2665 2668  910 911 2826 2827  119 227 228 1428  2237 2241 2399 2416  1232 1235 2729 2736  727 728 737 2071  2184 2294 2295 2296  933 1546 2840 2841  727 737 738 2071  1881 1897 1898 2758  1573 1574 1869 2713  225 226 354 2003  12 1321 1398 2820  226 353 354 2003  1004 1009 2169 2172  2237 2240 2396 2400  899 2741 2764 2815  237 343 344 1998  2237 2240 2241 2413  1010 2169 2209 2211  1894 1954 2742 2787  1518 1519 2662 2770  222 1002 2167 2169  2237 2414 2416 2417  889 890 2743 2810  2408 2414 2415 2416  2583 2585 2586 2587  2237 2398 2399 2400  991 1467 2582 2673  2508 2518 2734 2735  250 1531 1924 2205  785 1226 2724 2725  1170 1368 2591 2592  2504 2673 2674 2675  2515 2622 2696 2706  2449 2455 2699 2701  671 672 1918 2547  1164 1233 2589 2733  2237 2396 2398 2400  1365 2679 2684 2688  249 250 252 1977  232 348 349 2000  248 249 1917 2205  1398 1399 1417 2818  1454 1518 1519 2662  242 260 261 1981  2147 2161 2338 2342  1260 1262 2801 2803  2242 2247 2306 2434  2796 2798 2799 2809  935 1296 2840 2847  1215 1217 2682 2685  2242 2247 2248 2434  2460 2463 2580 2586  205 277 278 1972  289 1740 1741 2202  942 961 962 2106  798 799 822 2075  1661 1662 1695 2839  2242 2306 2312 2434  2520 2644 2668 2755  1016 2216 2217 2342  403 1051 1052 2342  927 928 2832 2834  271 272 1016 2217  271 2212 2216 2217  404 1015 1054 2341  2235 2242 2312 2434  2762 2763 2853 2862  744 1852 2666 2669  280 281 2148 2232  280 1736 1737 2232  475 476 1559 2406  2506 2648 2665 2666  778 833 834 2086  2653 2830 2833 2836  1719 1737 1738 2173  1856 1857 2699 2701  225 2133 2173 2177  2090 2091 2124 2789  748 1208 1209 2674  785 786 1226 2725  928 929 1288 2836  760 761 2699 2700  1435 2235 2310 2313  820 2749 2760 2765  2297 2435 2436 2438  2194 2255 2256 2330  1301 1303 1380 2832  2143 2163 2197 2263  2187 2192 2254 2261  1489 1520 1521 2750  476 1559 2403 2406  896 897 2096 2810  2192 2194 2255 2256  2645 2759 2760 2775  1419 2811 2812 2816  784 1239 2722 2740  1722 2190 2265 2266  2164 2194 2255 2261  2663 2772 2774 2775  1484 1495 2174 2226  2164 2194 2255 2330  1798 1840 2454 2606  1653 1706 2330 2389  9 10 969 1395  330 1752 2239 2270  2143 2197 2199 2263  1071 2387 2388 2389  326 2260 2261 2263  2143 2163 2164 2263  303 315 317 1996  873 874 1893 2787  1954 2718 2720 2795  2521 2643 2652 2719  12 13 1321 1398  1469 1511 2463 2580  313 314 319 1995  868 869 2091 2789  177 485 497 2437  2131 2150 2159 2160  950 951 2761 2854  1416 1422 2819 2856  1871 1887 2643 2714  1612 2838 2839 2841  303 316 317 1996  2150 2159 2160 2380  1295 1296 1379 2847  1749 2197 2260 2263  102 1604 1716 1743  101 102 1603 1743  1725 1749 2197 2260  79 767 1580 1581  308 324 325 1992  307 325 326 1992  97 460 1911 2390  306 307 326 1992  325 326 1748 2260  125 1759 2274 2310  812 2751 2752 2754  2757 2822 2823 2827  2132 2153 2154 2168  1623 1648 1703 2489  1759 1761 2274 2310  1759 1761 1762 2310  767 2702 2704 2705  2239 2266 2270 2283  1856 2524 2525 2697  1881 1898 2749 2758  13 14 905 1399  797 809 811 2080  1354 2559 2560 2573  1248 1250 1380 2777  2220 2222 2224 2225  1288 1375 1388 2830  2652 2713 2714 2791  2136 2190 2191 2193  16 17 1423 1522  1466 1514 2504 2671  2363 2624 2626 2628  888 900 2810 2873  1722 1752 2265 2266  1723 1753 1945 2266  178 1480 1481 2422  1482 2276 2277 2278  550 562 1122 2501  478 2407 2409 2410  133 499 1793 2441  2192 2254 2255 2256  1761 2273 2300 2310  680 681 1175 2609  2175 2181 2270 2283  2181 2239 2270 2283  34 1551 1616 2725  1691 1692 2145 2253  1241 2690 2692 2766  736 737 2654 2661  1234 2733 2736 2737  2145 2164 2253 2330  358 1026 1029 2279  2176 2188 2214 2284  1691 2145 2253 2330  2181 2239 2269 2270  1216 2684 2687 2688  1653 2145 2330 2389  819 820 2753 2759  2180 2183 2273 2274  580 1817 2516 2519  2300 2311 2312 2328  1599 1600 1914 2258  1770 1962 2327 2328  551 1107 2486 2487  2136 2177 2193 2196  1597 2353 2390 2401  2304 2305 2318 2359  2526 2634 2637 2740  225 2133 2196 2200  1732 1751 1967 2204  1433 1434 1498 2274  385 386 2311 2314  2141 2146 2170 2213  1769 1770 1958 2327  1945 2176 2195 2198  2163 2176 2191 2198  367 1482 2276 2295  335 336 2180 2273  455 456 1067 2382  290 291 339 1983  1498 2180 2183 2274  1104 2436 2438 2439  2445 2628 2629 2633  379 380 382 2010  183 276 1022 2225  393 1771 2300 2328  454 1066 2381 2382  1223 1239 2634 2722  1029 2279 2280 2282  2140 2143 2146 2344  1030 1384 1385 2284  1239 2634 2637 2740  361 1031 2282 2417  1083 2414 2417 2418  372 390 391 2006  371 372 391 2006  222 223 1003 2171  2139 2141 2169 2209  199 211 284 1975  1030 1031 1385 2284  364 1036 2290 2291  364 1036 1037 2291  2450 2526 2634 2637  1235 2729 2738 2739  743 744 1852 2666  579 580 2516 2519  1375 2653 2682 2800  1448 1512 2462 2510  2463 2580 2583 2586  1016 1052 2216 2342  402 403 1051 2342  1287 1302 1379 2834  1242 1370 2768 2769  646 1147 2572 2573  1031 1033 1085 2417  2241 2245 2400 2401  2445 2450 2451 2546  2319 2473 2484 2542  1036 1037 1386 2291  2250 2423 2425 2434  1497 2175 2180 2277  1343 1386 2291 2292  1037 1093 1386 2424  937 938 2848 2849  991 1159 1323 2582  435 436 2358 2359  266 992 1009 2172  1638 2523 2804 2805  37 709 1552 1618  2450 2546 2603 2604  185 1331 1487 2172  2139 2141 2209 2212  1731 1944 2135 2140  544 2321 2481 2482  821 822 1883 2765  228 1428 1429 2177  487 488 1092 2422  266 1009 2172 2209  461 2238 2258 2390  461 462 2020 2392  433 1782 2355 2356  277 278 2228 2229  1048 1088 2335 2419  1729 1741 1923 2201  434 1772 1773 2356  330 2267 2269 2270  2301 2305 2316 2356  204 205 278 1972  1534 1740 2201 2234  2152 2153 2154 2168  243 244 2144 2206  2157 2383 2384 2387  240 241 261 1981  1514 2503 2661 2664  1646 1702 1708 2491  377 385 2008 2009  1926 1933 1944 2230  277 278 2229 2231  2181 2239 2243 2271  237 343 1997 1998  495 496 1104 2436  2242 2244 2246 2285  659 1160 1163 2585  2247 2249 2314 2434  1983 1984 2111 2267  382 2300 2310 2313  2469 2474 2475 2476  170 689 690 1473  2743 2747 2852 2856  2298 2303 2319 2484  1067 1070 2384 2387  2299 2303 2475 2479  1769 1807 2323 2327  1597 1684 1685 2401  1098 1099 1118 2429  122 1431 1432 2189  446 1058 1070 2373  457 1067 1070 2387  550 551 1108 2486  1074 2335 2404 2405  1482 1483 2277 2278  457 458 1071 2388  800 820 821 2075  1428 2133 2173 2177  1731 1732 1933 2204  467 468 2399 2400  1668 2526 2704 2727  675 2055 2056 2598  2241 2353 2399 2400  504 2447 2452 2454  470 2022 2023 2353  468 2023 2117 2353  429 430 469 2023  468 469 2023 2353  407 408 443 2011  577 589 601 2052  478 479 1079 2410  2488 2489 2492 2501  1382 2611 2612 2640  713 2635 2636 2637  1647 1703 1708 2491  888 900 920 2098  1805 2400 2402 2478  2308 2317 2575 2617  2747 2763 2852 2856  36 711 983 2630  1420 2763 2852 2856  691 1471 1472 2608  880 881 1613 2801  489 490 1095 2424  1104 1105 2438 2439  490 491 1097 2426  433 2012 2013 2357  1098 1120 2428 2500  2512 2648 2656 2666  1095 1386 2424 2427  762 763 2449 2456  644 2562 2569 2571  693 705 765 2066  508 2040 2041 2442  2164 2255 2261 2264  2346 2576 2616 2617  505 506 2442 2461  165 166 1323 1468  1476 1505 2308 2574  740 741 2658 2665  373 374 389 2007  2649 2720 2741 2765  171 1473 1474 2619  2011 2017 2114 2357  2360 2366 2369 2446  1778 1779 2369 2371  548 1812 1813 2485  867 868 1889 2791  2303 2319 2470 2491  440 441 2016 2357  951 957 958 2104  950 2103 2104 2850  928 2832 2834 2836  387 2314 2315 2316  1678 2473 2541 2551  950 956 2103 2104  2105 2106 2128 2850  864 865 2789 2790  1463 2663 2767 2769  1472 2351 2607 2618  158 159 1461 2771  2490 2491 2492 2494  1520 2667 2745 2814  1269 2681 2735 2809  1331 1487 2172 2207  2520 2643 2669 2683  1466 1467 2504 2673  544 545 1809 2482  558 1115 2496 2498  557 558 1115 2496  771 783 1873 2657  2591 2592 2593 2609  771 772 827 2083  1168 1170 1368 2591  2508 2681 2735 2809  2298 2299 2322 2497  1048 2335 2337 2419  1676 1677 1710 2541  519 538 539 2029  541 2475 2476 2479  1835 2348 2540 2597  1119 1336 2497 2501  999 1001 1339 2165  1341 1390 2213 2343  2143 2147 2163 2197  1002 1010 1389 2170  319 320 1601 2256  398 399 1320 2333  1420 2763 2851 2852  44 1556 1621 2493  628 640 2563 2564  628 640 1138 2563  866 867 2092 2789  849 850 862 2088  2299 2494 2497 2501  503 504 575 2045  235 345 1998 1999  1056 2329 2340 2345  767 1580 2704 2705  1178 1382 2611 2640  2490 2491 2493 2494  2299 2303 2474 2491  1682 2245 2477 2489  2493 2495 2549 2551  542 1807 2480 2481  1980 1981 2110 2206  577 1447 1814 2510  235 236 345 1998  321 322 1744 2257  576 589 2046 2052  576 2046 2052 2502  266 2172 2207 2209  542 2479 2480 2481  239 1535 2149 2201  2081 2082 2126 2872  462 463 2019 2392  2299 2322 2494 2497  295 296 331 1986  2299 2497 2500 2501  2593 2607 2608 2609  1875 1956 2751 2754  2244 2479 2480 2481  2244 2323 2480 2481  780 781 1870 2714  1638 2523 2802 2804  894 895 2095 2810  2662 2770 2773 2775  138 577 1447 1814  907 908 1277 2821  2844 2864 2865 2866  579 1815 1816 2519  2139 2172 2207 2209  299 334 335 1987  509 2459 2467 2468  1708 2470 2474 2491  724 725 740 2070  2236 2242 2244 2246  1482 1498 2277 2295  1802 2459 2464 2468  576 588 2502 2511  327 328 1991 2254  588 590 2046 2047  272 1016 2217 2221  2218 2288 2290 2293  2242 2248 2285 2323  2139 2207 2209 2210  631 632 1620 2552  726 738 2070 2071  279 280 1736 2148  1564 1609 1654 2862  1564 1609 2861 2862  299 335 1987 1988  193 1534 1740 2201  1045 1047 2332 2333  281 1737 1738 2173  532 610 611 2036  532 533 611 2036  744 1852 1853 2669  626 669 2058 2059  282 283 1969 2228  329 330 1985 2267  1000 2158 2167 2168  221 1001 1002 2167  1003 2152 2167 2171  625 626 669 2058  297 298 333 1987  1045 1047 1344 2332  1543 1564 1609 2861  179 180 367 1482  1064 2378 2382 2384  1427 1491 2130 2142  1643 1709 2628 2631  1047 1344 2332 2340  239 240 2110 2206  1751 2144 2203 2204  1531 1608 1924 2205  56 396 988 2331  1542 2150 2160 2376  2161 2194 2339 2345  243 244 1732 2144  2147 2188 2338 2342  1609 1654 2862 2864  582 583 2049 2502  225 2133 2177 2196  297 333 1986 1987  2161 2163 2164 2194  645 1134 2562 2573  2133 2136 2138 2139  187 213 1330 1424  2082 2126 2708 2872  1933 1967 2199 2204  1997 1998 2112 2178  236 237 1727 2200  243 2135 2144 2149  583 595 596 2049  485 486 1089 2423  336 1758 1759 2274  410 433 445 2012  594 2048 2049 2530  407 419 442 2017  2174 2176 2220 2283  587 588 2502 2531  145 1455 1880 2758  2305 2309 2562 2569  644 645 1134 2562  242 259 260 1980  2183 2185 2251 2273  316 328 2203 2264  250 1976 1977 2206  2194 2337 2338 2339  2194 2337 2339 2340  2174 2265 2266 2270  363 1034 1036 2286  610 611 2036 2535  2307 2309 2352 2358  243 1731 2135 2204  2163 2187 2259 2261  402 403 1050 2337  438 439 2352 2366  235 345 346 1999  1486 2139 2207 2208  1323 1468 2579 2582  663 664 1169 2594  744 1853 2656 2669  334 1756 1757 2272  654 1469 2581 2596  326 1749 2260 2263  1169 2581 2590 2596  365 1037 2293 2296  2361 2593 2607 2609  2252 2253 2255 2330  677 2055 2120 2598  316 1742 2203 2253  677 2054 2055 2120  648 649 1150 2576  1472 2365 2607 2608  266 1331 2172 2207  511 512 546 2025  1483 2226 2277 2278  125 1435 1762 2310  2192 2215 2257 2334  334 335 1757 2251  476 2403 2407 2409  176 1105 1358 1478  533 534 612 2037  2319 2473 2484 2485  180 367 1482 2276  1185 1186 2576 2619  1976 1977 2110 2206  1185 2576 2616 2619  438 439 2352 2357  1100 2426 2430 2433  1939 1943 2301 2302  2677 2678 2679 2680  1500 1501 2235 2250  1082 2286 2412 2418  238 250 1976 2206  1078 2408 2409 2411  1854 1867 1868 2709  238 1976 2110 2206  1765 1766 1772 2316  612 2484 2543 2544  2279 2281 2282 2283  2219 2220 2222 2224  1626 1651 1652 2334  1689 1690 2252 2330  1339 1390 1392 2165  1597 1685 2390 2401  1083 1085 2415 2417  2240 2244 2478 2480  1645 1675 1698 2553  494 2430 2431 2436  2304 2358 2359 2368  1684 1685 2401 2403  710 1552 2630 2632  331 2239 2243 2271  1685 2390 2401 2403  428 470 471 2022  2308 2352 2369 2370  280 281 1737 2232  2248 2285 2321 2323  2249 2314 2315 2316  1026 1029 2279 2280  1504 2307 2308 2309  2326 2367 2472 2553  710 711 1194 2632  1853 1873 2657 2721  2317 2349 2360 2617  1778 2369 2371 2446  1198 1201 1334 2636  437 2014 2015 2357  1472 1507 1508 2351  2317 2352 2366 2368  225 1997 2003 2178  2317 2349 2360 2448  436 437 2014 2357  1055 1057 1345 2343  437 438 2015 2357  241 242 261 1981  782 2082 2708 2872  1853 1873 1965 2721  1872 1873 1965 2721  1713 1928 2706 2710  381 393 1771 2300  721 743 744 2068  2648 2658 2661 2664  381 1761 1771 2300  296 297 332 1986  1844 1845 2507 2655  390 391 2306 2311  737 738 2071 2658  2215 2337 2338 2419  736 737 2658 2661  612 613 2543 2544  332 333 1986 2268  540 1805 2477 2478  1954 1964 2720 2795  1680 1681 1708 2474  2237 2241 2399 2400  1480 2250 2422 2423  1343 1383 1386 2292  658 1161 1162 2587  381 382 1761 2300  561 1119 2500 2501  1565 1655 2853 2862  1851 1931 2666 2754  781 782 824 2872  2308 2309 2317 2352  576 577 589 2052  584 594 2049 2530  1800 2458 2459 2465  1217 1367 2682 2686  583 584 2528 2529  753 1215 1217 2685  2317 2366 2368 2448  609 610 2036 2535  1217 1367 1372 2686  2522 2683 2687 2691  755 2687 2689 2690  754 2686 2687 2690  1755 1788 2272 2397  628 2495 2548 2564  1861 2602 2603 2703  2489 2491 2492 2494  1565 1654 1655 2862  1564 1565 1654 2862  762 2456 2693 2700  541 542 2028 2483  760 2062 2063 2693  2244 2321 2323 2481  700 701 770 2064  2185 2236 2251 2272  546 1810 2482 2484  1554 1619 1698 2553  1929 1954 1964 2720  195 238 1530 1535  1131 1203 1354 2560  2523 2621 2712 2802  2308 2571 2574 2575  773 774 2084 2126  743 744 2648 2666  1104 2435 2436 2438  474 1625 2405 2406  667 668 1835 2597  2607 2608 2610 2618  2682 2796 2798 2799  504 2039 2045 2442  501 572 573 2044  785 2722 2724 2725  1836 1925 2547 2703  782 824 2082 2872  1839 2444 2546 2605  1551 1616 1641 2725  795 1235 1238 2739  1196 1239 2634 2637  2443 2457 2518 2737  1443 1444 1508 2365  734 1845 1846 2659  238 1530 1535 2149  726 738 739 2070  821 822 2075 2753  195 238 250 1530  1445 2440 2468 2532  2466 2505 2509 2678  810 822 1884 2742  2462 2510 2519 2660  729 730 735 2072  1153 1155 2567 2577  1929 2720 2741 2765  1707 2157 2373 2388  556 557 1114 2496  197 1527 1629 2157  197 1629 1630 2157  197 1536 1630 2157  1563 1707 2373 2388  1563 1629 1707 2373  1586 1829 2472 2540  1630 1694 2157 2205  1836 1861 1925 2703  1644 2553 2624 2625  195 238 239 1535  1133 1354 2559 2573  1883 1929 1954 2765  2744 2773 2776 2826  865 866 2093 2789  241 242 2135 2149  2309 2317 2562 2571  1940 1941 2240 2396  2074 2075 2125 2753  1101 2429 2430 2431  631 1555 1620 2552  202 280 1970 1971  1351 1355 2565 2570  433 2355 2357 2358  385 1436 2313 2314  1104 1156 2435 2438  650 651 1476 2574  687 1182 1184 2614  779 1574 1575 2713  1234 2588 2733 2737  202 203 280 1971  2443 2453 2463 2528  76 1578 1863 2706  973 1609 2861 2864  2572 2575 2616 2617  2174 2175 2270 2283  897 898 2096 2810  133 134 498 1443  781 823 824 2872  505 506 564 2039  1441 2308 2370 2371  2662 2667 2744 2746  748 1208 2674 2675  2304 2318 2324 2562  1472 1508 2351 2365  684 1180 2613 2615  673 674 1837 2603  2505 2674 2676 2678  1370 2768 2769 2772  843 1246 2772 2774  1943 2301 2302 2482  1364 1382 2638 2640  785 1225 2722 2725  82 83 670 1584  1197 1239 1391 2638  1937 1939 1943 2301  678 679 2545 2598  286 2151 2228 2233  842 1245 2771 2773  159 1461 2770 2771  843 2772 2773 2774  69 70 869 1571  2455 2524 2525 2697  1836 1918 1925 2547  853 870 871 2090  821 822 2760 2765  505 1799 1840 2454  691 1188 2608 2618  2146 2381 2383 2385  1799 1839 2444 2605  1711 1891 2792 2794  2145 2383 2386 2387  2150 2376 2377 2380  1444 1445 1509 2468  2140 2146 2150 2383  824 2081 2082 2872  733 734 2648 2658  242 243 2135 2149  2681 2796 2797 2809  944 945 2108 2850  751 1212 1214 2680  31 32 1318 1615  2443 2518 2588 2737  769 770 2693 2694  2140 2146 2150 2166  2140 2144 2344 2383  239 240 2149 2206  868 2784 2789 2791  735 1846 2659 2660  2182 2187 2391 2394  2731 2734 2806 2808  1556 1702 2490 2493  876 877 1258 2798  1472 1507 2351 2618  1139 2495 2496 2564  787 788 1227 2726  461 462 2238 2258  171 172 1186 1474  2450 2602 2603 2604  875 1256 2796 2798  1215 1256 1258 2682  674 2546 2603 2604  2187 2391 2393 2394  658 1161 2584 2587  144 817 1879 2756  1447 1448 1512 2510  724 740 741 2069  847 1251 1253 2779  1269 1270 2681 2809  901 1284 2817 2829  1280 2776 2824 2826  733 2507 2648 2656  1366 2676 2677 2681  1267 1269 2735 2809  157 901 1459 2829  2187 2215 2257 2258  1796 1797 1927 2452  2247 2248 2298 2321  1769 2323 2327 2328  2361 2451 2591 2612  2136 2179 2190 2193  162 163 1221 1465  898 899 918 2097  1115 1352 2498 2565  966 1315 2858 2870  1745 2187 2258 2391  937 938 1299 2848  749 2674 2675 2677  782 1871 2719 2721  2744 2757 2823 2827  2643 2650 2785 2786  1136 2562 2565 2570  896 915 2095 2096  546 1810 1811 2484  1455 1880 1897 2758  908 909 1278 2823  2240 2245 2400 2478  2298 2302 2319 2484  909 910 1278 2823  1429 1494 2136 2179  1191 2556 2623 2625  467 1788 1789 2396  899 900 919 2098  1648 2245 2487 2489  1210 1365 2672 2679  818 2076 2077 2753  2649 2742 2760 2765  1655 2762 2853 2854  987 1077 2407 2487  691 1187 1188 2618  1842 1843 1961 2536  551 1107 1109 2487  191 286 1528 1532  1109 1623 2487 2488  190 191 286 1532  1458 1489 1521 2812  929 930 1289 2836  929 930 2833 2836  874 1894 2787 2788  1295 2837 2840 2841  1636 2802 2838 2839  1901 2747 2815 2873  229 351 352 2002  906 907 1276 2820  121 1912 1916 2189  1455 1897 2667 2758  2717 2778 2793 2795  2718 2742 2787 2788  1402 1410 1421 2853  1721 1916 2179 2189  951 2761 2792 2854  899 919 2097 2098  823 824 2081 2872  1721 1912 1916 2189  1643 1700 2627 2628  888 889 1895 2873  951 952 2761 2792  2578 2690 2691 2692  2834 2835 2847 2848  2136 2174 2179 2190  943 962 2106 2107  990 1464 2692 2767  481 482 1084 2414  935 936 1296 2847  1900 1929 2741 2815  750 751 1212 2680  2718 2748 2777 2832  2106 2107 2128 2850  943 2106 2107 2850  112 113 891 1412  1895 2743 2747 2852  943 944 2107 2850  1081 2408 2411 2414  2763 2857 2870 2871  2748 2777 2832 2849  975 1311 1313 2866  1296 1299 1379 2847  821 822 2753 2760  1657 2762 2792 2844  980 1311 2843 2865  2287 2412 2413 2414  936 1296 1299 2847  2241 2408 2411 2414  2578 2689 2690 2692  32 1318 1615 2728  1427 1428 1720 2173  674 675 1838 2546  481 2411 2412 2414  764 1859 1860 2604  706 707 1192 2623  1826 2324 2471 2534  1552 1617 1699 2630  999 1001 2162 2165  280 281 2148 2228  2718 2748 2832 2835  479 480 1080 2411  39 985 1619 2625  1619 2553 2554 2625  222 2167 2169 2171  192 193 1534 1740  218 996 998 2159  2743 2747 2815 2873  215 1523 1524 2155  1404 1420 2851 2852  2748 2832 2835 2849  2180 2185 2268 2269  486 487 2422 2423  2650 2715 2718 2835  356 1026 2226 2278  998 1063 2379 2380  183 184 264 1486  264 1023 2208 2225  181 1483 2226 2278  1029 1032 1342 2280  454 1064 2378 2382  1540 2157 2374 2376  2715 2718 2748 2835  819 820 2749 2759  2187 2192 2254 2257  1350 2425 2426 2433  488 2422 2424 2425  2520 2751 2752 2754  2248 2428 2429 2430  457 458 1070 2388  447 448 1629 2373  733 734 2648 2659  272 1016 1018 2221  2248 2426 2428 2430  1010 1012 1389 2211  2242 2248 2426 2428  232 233 2193 2195  2248 2426 2430 2434  2214 2215 2394 2416  1526 1542 2160 2376  944 964 2107 2108  482 1083 1085 2415  562 1123 2499 2501  496 1103 2433 2436  1208 2673 2674 2675  1893 1954 1964 2795  494 2430 2433 2436  119 120 228 1429  1026 2226 2279 2280  2249 2297 2436 2438  1121 1349 1383 2499  494 1100 2430 2433  2246 2413 2499 2501  357 1026 2226 2279  1484 1494 2174 2227  560 1118 1120 2500  1108 2486 2488 2501  2367 2553 2556 2624  713 714 2636 2637  2748 2778 2835 2849  639 1135 1138 2563  356 357 1026 2226  1026 2226 2278 2280  1420 1422 2852 2856  495 496 1103 2436  636 637 2557 2559  176 1105 1478 2439  496 497 1105 2437  496 2433 2437 2439  494 1103 2433 2436  312 320 1994 1995  441 442 2352 2370  1475 1476 1505 2574  494 495 1103 2436  2613 2639 2640 2642  1457 1458 1521 2812  2453 2455 2524 2701  585 2528 2530 2531  1815 1930 2510 2654  2645 2742 2786 2788  1051 1348 1384 2221  2147 2163 2188 2338  1203 1387 2560 2641  1874 2742 2751 2786  1168 1360 1368 2591  323 324 2187 2254  1854 1864 1868 2709  2440 2460 2463 2528  2362 2613 2640 2642  733 1844 1845 2507  1871 2643 2719 2721  1080 1393 2410 2412  1170 2591 2592 2594  2440 2443 2465 2593  501 2441 2442 2447  586 587 2531 2532  765 766 1861 2602  1126 1127 1335 2550  2304 2317 2324 2562  663 664 1170 2594  1361 1387 2560 2615  1181 1361 1387 2615  132 1441 1780 2371  716 717 1201 2639  768 769 2693 2705  1501 2249 2314 2434  2235 2242 2250 2434  1542 2131 2150 2160  580 1816 1817 2519  1671 1672 2600 2628  2443 2457 2591 2737  1533 2374 2375 2376  674 1838 2546 2604  657 1158 1160 2583  2456 2517 2700 2702  2365 2440 2464 2593  793 794 1234 2736  1479 1480 2250 2423  1073 2404 2408 2421  1581 1862 2703 2704  777 778 2126 2712  2450 2456 2457 2526  1218 1254 2686 2690  929 1288 2833 2836  1761 2273 2274 2310  744 2648 2656 2666  2445 2450 2601 2631  873 874 2783 2789  1269 1366 2681 2735  2456 2693 2700 2702  1956 2751 2754 2786  1851 2666 2668 2754  2449 2455 2456 2699  186 212 224 1488  1882 1929 2741 2765  760 761 1856 2699  2835 2845 2848 2849  1856 2697 2699 2701  1415 2855 2856 2859  333 334 1987 2268  777 778 1575 2712  1081 1084 2408 2414  760 2620 2697 2699  947 1410 2851 2853  1633 1639 1659 2842  491 1096 1098 2428  791 2729 2730 2734  490 1095 2424 2427  8 970 1394 2863  212 224 1488 2152  1096 1098 1120 2428  1883 1884 1954 2742  888 900 2098 2810  1424 1488 1490 2153  1799 1839 1942 2444  149 150 215 1523  1799 1839 1840 2605  1525 1526 1542 2160  1096 1120 2427 2428  192 287 288 1528  616 667 679 2053  1677 1678 2541 2551  485 1106 2423 2437  1424 1488 2152 2153  485 1089 1106 2423  2363 2558 2623 2624  1130 1191 2556 2623  1131 1133 1354 2559  2430 2432 2434 2436  1236 2591 2737 2738  357 1027 2226 2279  394 395 1042 2331  1627 1652 1706 2330  186 212 1424 1488  661 1163 2585 2590  661 662 2590 2591  2455 2518 2620 2698  2305 2429 2432 2570  712 713 1196 2635  2429 2430 2431 2432  212 1424 1488 2152  2298 2302 2319 2320  2319 2320 2498 2566  2517 2694 2700 2702  1396 1415 2855 2859  1351 1352 1355 2565  707 2623 2625 2626  707 1192 2623 2626  707 708 1193 2626  2693 2694 2700 2702  2347 2363 2364 2536  707 1192 1193 2626  1390 2165 2213 2343  1627 1706 2330 2331  892 893 925 2101  889 1895 2743 2873  556 1112 1114 2495  1237 2638 2738 2740  2517 2694 2702 2705  557 1113 1116 2497  2518 2736 2737 2738  604 1826 2471 2537  648 1150 1185 2576  1150 1186 1474 2576  2743 2757 2764 2811  761 762 2699 2700  577 578 2460 2502  1411 1422 2743 2852  584 585 2465 2528  200 201 282 1970  1150 1152 1475 2576  174 651 1476 2577  1150 1474 1475 2576  288 2151 2228 2229  118 1427 1428 1720  654 1172 2581 2596  1161 1209 2674 2676  2226 2277 2278 2280  1816 1846 2519 2660  1986 1987 2111 2268  442 443 1440 2307  332 333 1755 2243  1788 2272 2396 2397  126 383 1435 1762  1220 2689 2690 2692  1875 1876 1931 2754  583 584 1820 2529  2463 2583 2586 2590  661 1165 1167 2591  748 749 2674 2675  188 1401 1408 2816  584 1820 1821 2529  894 2810 2812 2813  899 1900 2741 2815  1162 1164 1359 2589  2 15 1273 1401  892 893 2101 2810  842 843 2772 2773  1408 1489 2812 2816  811 812 2080 2753  1206 2670 2672 2688  2693 2694 2702 2705  689 1184 2618 2619  654 666 1172 2596  587 1823 1824 2532  544 1808 2321 2481  1810 1811 1832 2484  2308 2346 2576 2617  654 1157 1172 2581  2186 2237 2243 2397  1816 1817 1846 2519  718 1205 2558 2623  1778 1794 1795 2446  1166 1169 1357 2590  847 1249 2779 2782  147 1456 1457 2813  1183 1361 2572 2615  1181 1183 1361 2615  893 894 2810 2812  1700 2626 2627 2628  2351 2614 2618 2619  2350 2610 2611 2613  1196 1363 2634 2635  711 2630 2632 2635  2463 2581 2590 2596  1471 1508 1509 2365  2130 2134 2148 2166  711 1194 2632 2633  1950 2466 2507 2525  1469 1510 2463 2596  679 1842 1843 2536  2242 2244 2323 2327  285 286 1921 2233  174 175 1477 2577  57 988 1071 2389  1195 1198 1334 2636  222 223 1004 2171  16 1522 1532 2233  213 993 994 2154  1644 2624 2625 2626  1064 1067 1346 2384  1644 2624 2626 2628  717 718 2629 2641  66 951 1567 1568  718 1203 2558 2641  542 2479 2481 2483  2473 2541 2542 2551  1585 1672 1673 2540  2299 2489 2491 2494  2319 2473 2542 2551  602 603 2032 2535  747 1208 2673 2675  1697 1701 1710 2551  976 1313 1314 2868  1582 1925 2547 2703  754 755 2687 2690  970 1394 2860 2863  1644 1700 2626 2628  753 1217 2685 2687  1219 2687 2688 2689  774 775 2708 2711  1217 2685 2686 2687  99 100 320 1601  32 788 1550 2728  1217 2682 2685 2686  1590 1677 1678 2541  696 761 762 2061  1226 1227 1333 2724  651 1476 2574 2577  1798 1841 2452 2606  433 1772 1782 2356  547 548 2476 2485  2241 2353 2401 2403  2523 2805 2806 2807  706 707 1191 2623  1640 1666 1667 2727  1232 2729 2733 2736  1958 2240 2327 2480  1537 2149 2157 2205  2130 2134 2148 2232  2303 2479 2481 2483  969 1395 2859 2860  1637 1657 1658 2844  868 2091 2092 2789  1606 1607 1694 2205  1237 1239 1391 2638  464 465 1786 2395  541 542 2479 2483  501 502 573 2044  544 2303 2481 2483  2652 2833 2838 2839  1438 1439 1503 2372  1724 1725 1966 2198  16 1532 1921 2233  1466 2504 2672 2673  174 1476 1477 2577  1595 1682 2354 2469  545 546 1810 2482  174 175 652 2577  174 651 652 2577  1359 1366 2589 2735  2444 2451 2457 2465  842 843 1244 2772  1744 1745 2257 2258  1242 1243 1370 2769  36 710 1552 2630  1103 1106 1350 2433  322 323 1745 2257  1808 2321 2323 2481  1246 1370 2772 2774  1736 2134 2148 2232  397 1561 1627 2332  2298 2303 2481 2482  877 878 1257 2800  878 1257 2800 2803  1257 1373 2798 2803  876 1256 1258 2798  1255 1257 1373 2798  1677 1701 1710 2551  2298 2299 2303 2481  86 607 1587 1588  1278 1374 2822 2827  2215 2334 2336 2337  758 770 1864 2696  1275 2818 2821 2822  2298 2299 2303 2322  795 1237 2738 2740  236 2196 2197 2200  986 2495 2548 2549  80 1862 1925 2703  2757 2821 2822 2823  551 2486 2487 2488  234 235 2196 2197  551 1109 2487 2488  1736 1926 2134 2230  163 745 1466 2670  1245 1247 1282 2826  1247 1280 2776 2826  116 283 284 1425  323 324 1993 2254  1931 2666 2669 2754  910 1280 1282 2826  1066 1345 2381 2385  197 198 1536 1630  910 911 1282 2826  461 462 2238 2392  910 2823 2826 2827  412 435 2013 2014  319 320 1995 2254  1293 1612 2838 2841  1153 1155 1337 2567  1096 1120 1383 2427  375 376 386 2008  390 1768 2321 2323  2297 2305 2316 2356  2304 2352 2358 2368  1939 2301 2302 2359  389 2006 2007 2311  26 981 1293 2838  987 1077 1109 2487  39 984 985 2625  1127 2552 2554 2555  897 1897 2667 2814  461 1783 1911 2258  2716 2833 2836 2837  459 471 2022 2353  2177 2178 2193 2196  324 325 1992 2254  24 933 1546 1611  329 341 2267 2270  1094 1350 2425 2426  897 1897 1898 2667  335 336 2180 2268  301 337 1988 1989  1897 1898 2667 2758  127 128 1437 1763  1506 1507 2346 2619  1546 1611 1639 2840  2748 2763 2869 2871  586 587 592 2530  2361 2591 2593 2609  1558 1704 2407 2487  48 1109 1623 2487  48 987 1109 2487  896 1897 1913 2814  2236 2242 2244 2327  1755 1787 1788 2397  978 1316 1317 2870  585 1822 2464 2465  576 589 590 2046  1414 1415 2856 2859  1396 1397 1415 2855  722 723 742 2069  879 880 981 2801  1594 1595 1682 2469  541 1806 2478 2480  2539 2541 2542 2551  547 548 1812 2485  1832 1943 2484 2544  678 679 1842 2347  335 336 1988 2268  722 742 2068 2069  1843 2536 2537 2597  722 742 743 2068  2843 2844 2845 2866  336 337 1988 2268  1310 1312 1378 2867  1884 1885 1894 2742  723 741 742 2069  2183 2273 2274 2310  2744 2773 2775 2776  1212 1269 1270 2681  2748 2824 2869 2871  1279 1376 2824 2871  2077 2078 2125 2753  1455 2662 2667 2758  134 1444 1803 2467  1575 1663 2712 2713  2076 2077 2125 2753  2144 2164 2203 2204  737 738 2658 2661  559 1116 1119 2497  559 1119 2497 2500  1119 2497 2500 2501  29 882 1548 2804  30 31 982 1549  2520 2752 2754 2755  324 1746 2187 2259  789 1228 1318 2732  946 947 1410 2851  559 2429 2498 2500  2747 2763 2851 2852  2298 2299 2497 2500  2285 2298 2299 2500  2778 2845 2866 2868  2743 2757 2764 2815  2304 2305 2309 2562  2304 2309 2317 2562  1650 2215 2334 2405  2743 2757 2811 2819  688 689 1186 2619  671 672 2057 2598  1729 1730 1741 2202  47 552 553 2488  891 892 924 2100  2715 2783 2793 2795  2095 2096 2127 2810  899 900 2764 2810  1740 1741 2201 2202  560 561 1120 2500  2649 2662 2744 2775  2246 2427 2499 2500  1161 1162 1211 2676  659 1162 2587 2589  300 335 336 1988  45 46 554 1622  658 659 1160 2585  332 333 2243 2269  1623 1703 2488 2489  865 2707 2785 2790  1162 2587 2589 2676  1931 1955 2643 2669  1553 1644 1700 2626  584 2465 2528 2529  1551 1617 1642 2723  1120 1121 1383 2499  301 302 337 1989  1112 1114 1124 2495  335 2185 2251 2273  338 1983 1989 2268  671 1583 1918 2547  163 1465 1466 2670  671 1583 2547 2600  208 209 287 1974  2520 2666 2669 2754  967 1305 2855 2857  184 185 1331 1487  1998 1999 2112 2178  1530 1535 1537 2149  2715 2748 2778 2835  2506 2512 2578 2648  1248 1371 2776 2777  2506 2512 2578 2691  450 451 1329 2375  2512 2522 2578 2691  338 1433 2180 2275  1931 2643 2669 2754  948 1403 1919 2853  107 948 1403 1919  2506 2512 2648 2666  225 226 2173 2177  313 319 320 1995  102 1603 1604 1743  1717 1895 1905 2852  126 127 384 1436  2246 2287 2292 2413  382 383 1762 2310  1 107 1403 1919  1405 1717 1896 2743  605 606 1828 2348  1 63 1403 1919  890 1405 1896 2743  444 445 2355 2357  1395 1409 1414 2860  2035 2036 2116 2535  518 540 2028 2029  2512 2520 2683 2691  1740 1741 1923 2201  286 1532 1921 2233  537 538 2030 2476  283 284 1425 2233  2520 2643 2669 2754  116 283 1425 1426  615 627 668 2059  2462 2505 2580 2586  2505 2580 2582 2584  1800 1942 1948 2465  2505 2584 2674 2676  1801 1802 2459 2464  1801 2459 2464 2465  139 1849 1930 2654  508 1801 1802 2459  117 1426 1739 2142  1512 1513 2462 2505  2453 2460 2466 2586  2067 2068 2123 2658  2453 2466 2508 2509  1931 1956 2643 2754  1512 2462 2505 2580  1467 2505 2580 2582  777 778 2086 2126  2505 2582 2584 2674  736 2503 2654 2661  732 733 2073 2658  1512 2462 2510 2580  581 582 2050 2502  2521 2643 2653 2683  538 539 1910 2469  735 2503 2659 2660  243 2144 2149 2206  1404 1410 1421 2851  2507 2513 2655 2656  775 776 2710 2712  163 164 745 1466  387 1764 1765 2315  2643 2650 2786 2831  1853 1965 2669 2721  2507 2508 2525 2655  1448 1930 2510 2654  137 576 1446 1447  772 773 2083 2126  68 870 1890 2794  137 576 577 1447  871 1891 2793 2794  950 951 2104 2850  240 241 2135 2149  1777 1957 2366 2448  549 1592 2470 2474  576 1446 1447 2511  576 577 1447 2511  1521 2745 2812 2813  943 944 2851 2852  1900 1929 1960 2815  900 1901 2815 2873  2267 2268 2269 2275  2194 2330 2332 2334  110 1411 1906 1907  2174 2190 2265 2266  324 2187 2259 2261  1456 1521 2745 2813  93 538 1910 2469  2453 2455 2508 2525  2187 2192 2215 2257  189 1407 1408 2812  1967 2199 2204 2262  148 893 1458 1920  396 1627 2331 2332  1956 2643 2754 2786  1615 1640 1696 2728  1665 1666 2706 2731  2303 2474 2475 2476  3 148 1458 1920  1017 2217 2219 2222  1624 1704 2403 2407  2186 2214 2394 2416  166 1323 1468 2579  166 1468 1469 2579  204 278 279 1972  192 288 1528 1534  277 278 1972 2228  2132 2153 2154 2155  1392 2378 2379 2381  166 654 1469 2579  654 1469 2579 2581  2157 2373 2384 2388  59 446 1563 1629  2188 2338 2342 2419  654 655 2579 2581  447 1058 1059 2373  2164 2203 2253 2255  178 486 1480 2422  1604 1605 1692 1716  185 992 1005 2172  465 1787 2395 2398  120 228 229 1429  177 178 485 1480  1479 1480 2423 2437  486 1480 2422 2423  1429 1493 1494 2136  1805 1941 2400 2478  357 358 1026 2279  485 486 1480 2423  168 1189 1471 2595  109 946 1404 1907  1650 1686 1705 2215  329 330 1752 2270  1470 1471 1509 2595  485 1480 2423 2437  1171 1189 1190 2595  2440 2464 2465 2531  479 480 1081 2411  2187 2215 2238 2258  1428 1493 2133 2177  1685 1686 1705 2403  1471 1509 2593 2595  1015 1016 1052 2216  946 1404 1907 2851  607 2535 2538 2539  1932 1967 2199 2262  233 346 347 1999  231 232 2178 2193  1189 1471 2595 2608  116 117 1426 1739  2130 2142 2148 2232  2141 2166 2167 2170  1487 1488 2130 2172  1062 2375 2377 2380  186 224 1005 1488  1488 2130 2171 2172  1057 2345 2385 2386  2160 2375 2376 2380  287 288 1973 2228  223 224 1006 2152  1674 1675 1698 2553  221 222 1002 2167  136 588 1824 2532  136 588 1446 2532  1013 2213 2216 2341  1050 2337 2339 2340  1050 1053 2339 2340  2137 2212 2217 2222  122 339 340 1432  359 1030 2281 2282  1485 1494 2225 2227  2174 2223 2224 2227  2161 2216 2341 2342  2147 2212 2216 2217  448 449 1059 2374  2297 2309 2567 2577  1065 1392 2165 2379  1439 1503 2307 2372  1731 1933 2140 2204  152 1324 1329 2160  288 1534 2151 2234  2164 2344 2345 2386  2149 2150 2157 2376  1675 2326 2472 2553  358 359 1029 2279  735 736 2072 2658  382 2300 2311 2313  2027 2028 2118 2483  444 1439 2307 2372  1663 2523 2712 2802  2462 2466 2505 2678  1632 1664 1665 2523  491 492 2426 2428  1514 2504 2506 2664  2309 2355 2356 2358  1632 1638 2523 2805  1448 1512 1513 2462  1226 2724 2725 2726  312 313 320 1995  398 1561 2332 2333  1328 2335 2336 2405  136 1445 1824 2532  136 1445 1446 2532  1742 2144 2203 2253  331 1754 1935 2271  1509 2440 2593 2595  233 234 2191 2198  2001 2002 2112 2178  2138 2143 2146 2161  152 1525 1526 2160  1016 1051 2221 2342  461 462 1783 2258  1525 1542 2131 2160  2217 2219 2220 2221  216 1324 1525 2156  231 2000 2001 2178  182 1484 1485 2227  1525 1538 1542 2131  2236 2251 2300 2328  1039 1040 1090 2296  473 1075 2404 2406  1940 2240 2272 2327  2218 2288 2289 2290  231 1721 2179 2190  1710 2539 2541 2551  331 1753 2239 2271  1722 1752 1760 2265  55 56 397 1627  232 2190 2193 2195  2238 2241 2399 2416  331 2239 2243 2269  1676 1710 2539 2541  94 1595 1910 2354  336 337 1759 2274  54 398 1320 2333  2858 2861 2862 2867  56 396 397 1627  548 549 2470 2476  1478 1479 2249 2439  2218 2277 2293 2294  1036 2286 2290 2291  543 544 2481 2483  1032 2280 2282 2288  1529 1534 1542 2201  193 1740 1923 2201  1434 1498 1499 2183  1435 2183 2235 2310  1645 1710 2326 2552  177 485 1480 2437  397 398 1561 2332  1689 1690 1706 2330  1645 1675 2326 2553  55 397 398 1561  881 1548 1613 2801  1400 1401 1418 2816  387 1765 2315 2316  932 933 1294 2841  387 2306 2311 2314  1773 1774 1939 2359  2304 2309 2317 2352  537 549 1593 2474  2763 2858 2862 2867  1645 1676 1710 2539  57 58 1071 1628  2245 2299 2489 2501  1105 1478 2438 2439  2286 2287 2412 2418  1642 1670 1699 2631  931 1293 2838 2841  643 1142 1144 2570  1681 1703 1708 2491  331 332 1754 2243  2291 2293 2294 2296  2220 2221 2281 2284  2319 2325 2542 2551  468 2024 2117 2399  1016 1018 1384 2221  334 335 1987 2268  2318 2471 2533 2543  1084 1087 2408 2415  1108 1122 1336 2501  1596 1683 2354 2401  400 1046 1048 2336  1651 1687 1688 2334  46 554 1622 2492  2150 2157 2377 2383  602 2471 2533 2534  583 584 2528 2530  504 563 575 2045  480 481 2411 2412  1644 1672 1673 2540  1828 1835 2348 2597  549 2470 2474 2476  1645 1675 1676 2539  1399 1400 1418 2816  1645 1675 2326 2539  561 562 1122 2501  793 794 1235 2736  2325 2472 2538 2539  2445 2450 2546 2601  168 1470 1471 2595  1227 1229 1333 2729  682 683 1176 2610  1671 1699 1709 2631  1197 1364 1391 2638  2526 2724 2727 2729  1440 1441 1505 2308  476 1076 2406 2409  951 1568 1908 2792  951 1568 2792 2854  66 951 1568 1908  1427 1720 1738 2173  988 1042 2331 2386  1666 1667 2622 2727  1731 2135 2140 2204  1630 1694 1707 2157  1933 1944 2140 2230  1389 2165 2170 2213  1731 1933 1944 2140  242 243 1731 2135  1348 2188 2221 2420  1389 1390 2165 2213  233 234 346 1999  1001 1389 2165 2170  1562 1628 1653 2389  1726 1727 1932 2197  1527 1540 2157 2374  2363 2445 2545 2599  1069 1071 2387 2389  1578 1579 1666 2706  1579 1666 2622 2706  540 541 1805 2478  1128 1322 2554 2625  2241 2409 2410 2411  2547 2600 2601 2631  2218 2287 2289 2290  471 1596 1792 2401  1349 2292 2412 2499  88 609 1589 2541  484 1086 1088 2421  610 1590 2473 2541  1783 1911 1914 2258  1558 1623 1648 2487  88 609 610 2541  481 1081 1084 2414  1038 2276 2288 2293  1048 1072 1088 2335  100 319 1601 1602  319 1601 1602 2256  1001 1339 1389 2165  2235 2300 2310 2313  177 1479 1480 2437  2717 2778 2792 2793  2423 2433 2437 2439  1587 1674 1675 2472  608 609 2535 2539  1071 1628 2388 2389  1497 1498 2180 2277  126 1435 1436 2313  534 612 613 2037  1945 2176 2182 2271  938 939 1302 2848  101 318 1602 1603  318 1602 1603 2252  496 497 1106 2437  2451 2612 2638 2640  2349 2572 2614 2615  981 1291 1293 2838  1939 2302 2359 2533  1261 1291 2833 2838  2545 2598 2599 2601  5 196 1531 1924  1957 2324 2368 2448  437 2352 2358 2368  2558 2560 2641 2642  758 759 1854 2696  24 25 1294 1546  624 625 671 2058  1654 1655 1656 2762  248 249 253 1977  1127 2550 2552 2555  505 506 2039 2442  507 508 2442 2461  507 1800 2459 2461  238 250 2205 2206  898 2667 2741 2764  1531 1608 1630 2205  479 1078 2409 2411  479 2409 2410 2411  1947 2449 2465 2529  31 982 1318 2732  2245 2486 2487 2489  1683 1684 1704 2245  5 198 1531 1608  812 1875 1876 2754  2451 2637 2638 2640  1649 1684 1704 2403  1544 1634 2864 2865  1544 1634 1654 2864  689 690 1473 2618  1402 1409 1565 2862  632 1322 1554 2554  1634 1654 1656 2762  179 1040 1481 2295  1637 1658 2842 2844  2858 2860 2861 2862  759 1854 2696 2698  39 40 985 1619  541 2476 2479 2483  2307 2309 2355 2358  459 460 1598 2390  2297 2432 2435 2567  2552 2553 2554 2555  539 540 2475 2477  759 2620 2694 2696  476 1327 1624 2407  473 474 1075 2406  2415 2416 2417 2420  2246 2285 2299 2500  1936 1940 1958 2327  453 1061 1064 2378  640 1137 2564 2565  632 633 1127 2554  40 41 1322 1554  1468 1469 2579 2580  1634 2844 2864 2865  2502 2528 2530 2531  581 582 597 2050  991 1208 2582 2673  2653 2683 2781 2831  2762 2778 2792 2844  1577 1578 1665 2706  2717 2762 2763 2778  2727 2728 2729 2731  2513 2515 2523 2809  773 774 1867 2695  579 2460 2502 2516  1855 1856 2525 2697  898 1898 2667 2741  1685 1686 2390 2403  632 1127 2552 2554  711 1363 2630 2635  1686 2215 2390 2403  659 660 1163 2585  1414 1421 2763 2862  1326 1549 1614 2805  1642 2450 2526 2723  459 1597 2353 2390  1665 2515 2706 2710  1819 1856 1857 2701  1640 1667 1668 2727  2350 2454 2458 2605  632 633 1322 2554  657 658 1160 2583  1585 1586 1714 2540  764 765 2693 2702  632 1554 2552 2554  1583 1584 1671 2600  1133 1146 1354 2573  1640 1641 1668 2727  642 1140 1142 2568  415 437 438 2015  632 1554 1620 2552  638 2557 2559 2562  758 759 2694 2696  1775 1834 2359 2534  530 608 609 2035  89 1590 1830 2473  1591 1592 1813 2470  1618 1643 2627 2632  81 1582 1918 1925  1136 2561 2562 2565  1586 1587 1829 2472  318 1602 2252 2256  1836 2547 2603 2703  1837 1860 2603 2604  674 1837 2603 2604  2164 2203 2255 2264  715 716 1200 2639  1603 1691 2252 2253  679 1843 2536 2597  2629 2639 2641 2642  101 318 319 1602  898 1898 1899 2741  644 645 2562 2571  1194 2627 2632 2633  2318 2324 2367 2471  606 607 2472 2538  38 708 1553 1618  2620 2622 2694 2696  1094 1097 1350 2426  1130 1131 1205 2558  1585 1586 1673 2540  717 718 1204 2629  1136 1144 2562 2570  545 1809 1810 2482  639 1135 2561 2563  1142 1144 1355 2570  1601 1602 1689 2256  2157 2374 2377 2384  1361 2560 2572 2615  779 780 2708 2713  641 1140 2435 2568  316 2203 2255 2264  1479 2423 2437 2439  1193 2627 2629 2633  437 438 2352 2357  2237 2287 2414 2417  132 133 1442 1793  1193 2626 2627 2629  2630 2631 2634 2723  2526 2738 2739 2740  749 750 1210 2677  2161 2164 2194 2345  1631 1636 2801 2802  638 639 1135 2561  638 639 1136 2561  638 1136 2561 2562  1069 2386 2387 2389  689 690 1187 2618  2443 2453 2586 2588  1642 1668 2450 2526  620 675 2055 2056  2450 2547 2601 2603  2350 2452 2454 2606  1928 2706 2709 2710  865 866 2707 2789  684 2610 2613 2614  2364 2560 2572 2615  1202 2615 2639 2641  1793 1794 2371 2441  777 2085 2126 2712  2652 2802 2838 2839  881 882 1548 2804  229 2177 2178 2179  2761 2762 2853 2854  2504 2505 2674 2678  983 1617 2630 2723  1169 1172 2581 2596  2349 2360 2448 2452  1471 2365 2593 2608  1471 1509 2365 2593  1180 1202 2615 2639  330 1752 1753 2239  173 174 651 1476  1797 1798 1841 2452  1402 1565 2853 2862  680 1174 2608 2609  823 2081 2087 2872  683 684 1179 2610  641 642 1141 2568  640 1137 1139 2564  1723 1945 2195 2266  779 835 2087 2872  2326 2550 2551 2552  1742 1751 2144 2203  1165 1234 2588 2737  898 899 2741 2764  2144 2164 2203 2253  713 714 1197 2637  1716 1742 2144 2253  1217 1218 1372 2686  1420 1421 2763 2851  1203 1354 1387 2560  1421 2763 2851 2853  322 1744 1745 2257  38 708 984 1553  840 2769 2770 2772  159 1461 1462 2770  1454 1879 2756 2758  896 897 916 2096  812 1875 2751 2754  756 757 1221 2689  1744 1914 2257 2258  2074 2080 2125 2753  1463 2647 2663 2767  1599 1911 1914 2258  708 984 1553 2626  142 143 1452 1878  63 1402 1403 2853  1367 1372 1388 2781  1515 2506 2578 2647  1929 1954 2720 2765  1457 1521 2812 2813  820 2075 2076 2753  658 2583 2585 2587  143 1452 1453 2646  2309 2567 2571 2574  1220 1241 2690 2692  1367 2682 2686 2781  163 1221 1465 2670  1788 1940 2272 2396  1367 1372 2686 2781  1468 1511 1512 2580  1754 1787 2186 2397  1517 2646 2647 2663  220 221 1000 2167  1754 1755 1787 2397  2309 2567 2569 2571  387 388 1765 2316  2162 2165 2166 2170  2130 2134 2141 2166  1466 1513 1514 2504  1249 1252 2768 2782  373 389 390 2006  790 791 1229 2730  1153 1337 2567 2574  1153 2567 2574 2577  2450 2526 2634 2723  2521 2621 2799 2800  2451 2457 2637 2638  1641 1642 1668 2526  769 770 1863 2706  1577 1665 2706 2710  780 2708 2713 2719  1526 1541 1542 2376  1887 2643 2714 2785  1494 2136 2174 2179  648 1148 1151 2574  1526 1540 1541 2376  779 2086 2087 2126  2349 2364 2448 2452  2505 2580 2584 2586  863 2785 2786 2788  1299 1379 2847 2848  1658 2715 2794 2844  951 1567 1568 2854  334 1757 2251 2272  2523 2621 2802 2807  2621 2652 2713 2802  1531 1536 1537 2205  1530 1531 1537 2205  785 786 1225 2725  32 1550 1615 2728  1632 2731 2732 2805  2364 2367 2558 2560  2518 2733 2734 2735  1878 1922 1963 2644  2362 2445 2451 2546  2509 2676 2678 2681  2526 2724 2725 2727  883 884 1263 2805  793 1234 2733 2736  468 1789 1790 2400  2460 2462 2580 2586  714 1197 2637 2638  635 1131 2557 2558  1530 1537 2149 2205  467 1788 2396 2398  784 1224 1238 2739  1236 1237 1360 2738  2662 2667 2749 2758  1536 1537 1540 2157  1941 2240 2396 2400  2520 2644 2647 2752  1276 1277 1305 2821  1454 1518 2662 2756  979 1397 2820 2855  1942 1947 1948 2465  935 936 1297 2846  1258 1367 1375 2682  506 507 1800 2461  1799 2454 2458 2605  1161 2584 2587 2676  1450 1514 2506 2664  878 1261 2800 2803  746 747 991 2673  803 804 817 2077  818 819 2076 2753  143 816 1453 2646  1161 2584 2674 2676  819 820 2076 2753  941 2105 2106 2850  1799 2444 2458 2605  1454 1455 2662 2758  657 1159 1161 2584  2 156 188 1273  158 1460 1461 2771  1159 1161 2584 2674  547 1811 2484 2485  664 2592 2594 2595  1215 1258 1367 2682  159 841 989 2771  848 1254 2766 2780  898 899 1899 2741  545 546 2303 2482  662 663 2590 2591  1821 1947 1948 2465  662 663 1168 2591  161 838 990 2767  1954 2718 2787 2795  2643 2652 2714 2719  156 1459 2816 2817  1819 1856 2524 2701  2774 2775 2776 2777  500 501 2043 2442  1820 1947 2449 2529  875 1255 1268 2798  855 869 870 2091  1635 1660 1661 2839  972 1543 2861 2863  2443 2453 2528 2529  156 902 2816 2817  61 1543 1564 2863  156 901 902 2817  894 1457 2812 2813  1298 1314 2849 2868  2521 2683 2796 2797  669 2540 2599 2600  895 896 2810 2813  2303 2319 2484 2485  1631 1638 1663 2802  1550 1615 1640 2728  588 2502 2511 2531  501 2043 2044 2442  2319 2484 2542 2543  2717 2720 2778 2795  1810 1832 1943 2484  166 167 654 1469  897 898 917 2096  164 991 1467 2673  1012 1341 1390 2213  613 1832 1833 2544  1414 1415 1420 2856  63 1565 1566 2853  2743 2757 2819 2856  1888 2707 2714 2791  2363 2540 2624 2628  1460 1519 1520 2746  1447 1511 1512 2510  2363 2445 2628 2629  679 2545 2598 2599  1643 1700 1709 2628  2763 2858 2860 2862  2363 2364 2367 2536  576 577 2502 2511  2362 2545 2546 2605  1418 2816 2818 2819  2762 2763 2862 2867  633 1128 1322 2554  2840 2842 2846 2847  677 2545 2605 2606  1854 1864 2696 2709  1869 1888 2714 2791  1510 2440 2463 2511  1426 1490 1491 2142  190 286 1532 1921  21 22 980 1610  2650 2718 2832 2835  1431 1495 1496 2189  2453 2455 2508 2518  1544 1610 1634 2865  1057 1066 1345 2385  68 1569 1711 2794  1279 1316 1376 2871  1394 1395 1409 2860  2518 2729 2733 2736  888 900 1901 2873  1665 2515 2706 2731  912 1283 1285 2828  61 1394 1409 2863  1279 2823 2824 2871  2556 2558 2623 2624  2453 2527 2528 2529  2506 2648 2664 2665  1665 2515 2523 2731  1325 1544 2864 2865  952 1908 1909 2792  396 1044 2329 2332  1476 1477 1504 2577  2715 2778 2835 2845  977 1312 1315 2867  676 2545 2546 2598  362 1032 1035 2288  966 1304 1315 2858  2513 2655 2657 2695  2514 2522 2648 2656  719 731 733 2073  2176 2181 2214 2284  807 813 814 2079  1851 1852 1931 2666  1292 1295 1377 2837  1250 1303 1380 2832  1372 2686 2780 2781  845 846 1250 2779  742 1851 2666 2668  742 1850 1851 2668  1851 1876 2668 2754  1876 1877 2668 2755  502 574 2044 2045  1876 2668 2754 2755  642 1141 2568 2569  1515 1516 2644 2647  2184 2296 2422 2424  1515 2578 2647 2692  864 865 2093 2789  2194 2332 2334 2340  1480 1499 2184 2250  550 1108 1122 2501  1062 1324 1329 2160  1026 1029 1342 2280  191 286 287 1528  2507 2508 2513 2514  150 215 1523 1524  1000 2158 2162 2167  675 676 2546 2598  433 445 1782 2355  676 2545 2546 2605  676 677 2545 2605  680 1190 2592 2608  681 682 1177 2609  1177 2609 2611 2612  1310 1378 2861 2867  18 61 1543 2863  2096 2097 2127 2810  15 904 1400 2816  1640 1641 2726 2727  2444 2449 2457 2604  1268 2798 2806 2809  1368 2591 2592 2609  162 1464 1465 2692  756 757 1222 2689  1515 1516 2647 2692  1554 2552 2553 2554  1465 2578 2689 2692  871 1890 1891 2794  1671 1672 1709 2628  1902 2717 2792 2793  872 873 2089 2789  1368 2591 2609 2612  3 1407 1458 1920  114 1406 1407 1920  1392 2165 2379 2381  2670 2671 2688 2689  2410 2412 2413 2499  2646 2662 2756 2759  539 540 2475 2476  1177 1368 2609 2612  1559 1625 1705 2406  1120 2427 2428 2500  1406 1407 1419 2812  892 1406 1920 2812  1716 1733 1742 2144  114 892 1406 1920  742 743 1851 2666  1651 1688 1689 2334  1175 1177 1368 2609  1135 1335 2557 2563  758 770 2693 2694  2440 2511 2531 2532  979 1276 1305 2855  1853 2657 2669 2721  1583 1671 2547 2600  2060 2066 2122 2693  817 818 2077 2753  390 1767 1768 2321  1838 1949 1951 2444  476 477 2407 2409  1541 1542 2201 2376  1942 2444 2458 2465  144 817 1453 2756  1728 1736 1737 2232  1604 1691 1692 2253  144 145 1454 1879  445 1782 2355 2372  1179 1353 2610 2614  1507 2351 2618 2619  1855 1946 1952 2525  375 387 2007 2008  577 2460 2502 2511  2607 2610 2614 2618  1353 2610 2614 2618  1468 1469 1511 2580  2247 2248 2305 2432  582 596 597 2050  1844 1845 1953 2655  896 897 1897 2814  781 782 2708 2872  362 363 2288 2289  1443 1508 2351 2365  2505 2584 2586 2587  2175 2180 2181 2218  877 878 1259 2800  1892 1893 1964 2795  658 1160 2583 2585  1210 2672 2675 2679  1903 1964 2720 2795  498 570 2042 2043  167 168 1173 1470  199 284 1969 1975  712 1196 1363 2635  2350 2607 2610 2614  1105 1358 1478 2438  2348 2472 2540 2624  509 1802 2459 2468  2365 2459 2467 2468  1644 1674 2540 2624  1644 1674 2553 2624  295 331 1985 1986  1383 1386 2292 2427  1443 1507 2351 2441  558 559 1116 2497  776 777 2085 2712  1674 2472 2553 2624  366 367 2276 2295  1340 2208 2210 2222  270 271 1014 2212  2348 2363 2540 2624  331 332 1986 2267  996 1062 1324 2160  331 1985 1986 2267  230 231 2001 2178  60 447 448 1629  229 2001 2002 2178  228 229 2002 2178  2143 2199 2262 2263  1032 1342 2280 2288  387 2007 2008 2311  324 325 2259 2261  386 387 2008 2311  2348 2363 2540 2597  2176 2239 2266 2283  127 384 385 1436  1057 1345 2343 2385  2215 2403 2404 2405  1443 1507 1508 2351  273 274 1019 2224  1430 1431 1495 2189  2004 2005 2115 2311  1334 2629 2633 2636  1066 1345 1392 2381  394 1057 2345 2386  691 692 1188 2608  2724 2726 2727 2729  490 1094 1097 2426  1829 1835 2348 2540  119 228 1428 1429  1648 1682 1683 2245  1621 1646 2493 2549  164 746 991 2673  2445 2635 2636 2637  2018 2019 2117 2392  641 642 1140 2568  1133 1134 2559 2573  463 464 2019 2392  628 629 1124 2548  2630 2631 2632 2635  615 667 2053 2059  422 463 464 2019  947 948 2850 2853  697 698 760 2062  548 2470 2476 2485  547 548 2031 2483  549 2031 2118 2483  2631 2632 2633 2635  2607 2608 2609 2610  2631 2634 2635 2637  2445 2631 2635 2637  2309 2432 2567 2568  2432 2435 2567 2568  2445 2631 2633 2635  503 504 2045 2442  1782 2316 2355 2356  2346 2349 2446 2447  2505 2582 2673 2674  578 2051 2052 2502  109 946 1404 1410  577 578 2052 2502  2051 2052 2121 2502  767 768 2693 2705  2046 2052 2121 2502  603 604 1826 2471  868 1572 1889 2791  2513 2521 2621 2799  2521 2643 2719 2721  769 1579 2622 2705  758 1854 1864 2696  2772 2773 2774 2775  769 2622 2694 2705  694 763 2060 2061  1421 2763 2853 2862  742 2648 2665 2666  1850 1851 1876 2668  2645 2650 2651 2718  2362 2363 2364 2642  932 1293 1294 2841  2065 2066 2122 2693  775 776 1713 2710  2523 2802 2804 2807  776 777 832 2085  868 1571 2784 2791  775 776 2085 2712  1892 1903 1964 2795  2745 2746 2750 2757  1201 1334 2629 2636  891 923 2099 2100  1904 2720 2747 2815  2621 2708 2711 2712  2778 2835 2845 2849  655 656 1158 2579  2649 2718 2748 2777  775 2084 2085 2126  1631 2801 2802 2804  992 1004 1005 2172  897 898 1898 2667  2347 2362 2363 2364  2750 2817 2822 2827  898 917 918 2097  1414 2763 2856 2859  1374 2817 2822 2827  9 969 1395 2860  904 1272 2816 2818  11 1307 1396 2855  899 1899 1900 2741  1380 2777 2832 2849  1411 1906 1907 2852  14 904 905 1399  970 971 1308 2863  1545 1633 2840 2846  1402 1421 2853 2862  2362 2363 2445 2642  655 656 1323 2579  1607 1608 1694 2205  945 946 1907 2851  1613 1631 1636 2801  788 789 1227 2728  2245 2400 2402 2478  542 543 2481 2483  1647 1702 2490 2491  637 1133 1134 2559  2299 2474 2475 2489  999 1065 2165 2379  1774 1775 1834 2359  1253 1372 2780 2781  2215 2335 2404 2405  470 471 2353 2401  92 93 538 1594  2246 2299 2500 2501  514 515 543 2027  281 282 1970 2228  217 218 2158 2159  1338 2152 2154 2168  1882 1898 1899 2741  871 2783 2784 2793  217 2156 2158 2160  2556 2623 2624 2625  2131 2150 2201 2202  115 284 285 2233  1295 2837 2840 2847  2131 2158 2159 2160  2131 2150 2166 2231  220 1000 2162 2167  1251 1388 2781 2830  328 1750 2262 2263  2134 2138 2200 2232  2134 2140 2199 2230  605 2033 2034 2535  453 1061 2377 2378  531 609 2035 2036  2683 2685 2796 2797  2686 2691 2780 2781  2716 2837 2839 2841  1749 1932 2197 2263  1645 1710 2326 2539  65 66 950 1567  2103 2104 2128 2850  890 2743 2810 2811  2650 2715 2718 2790  403 404 1053 2339  279 1736 2148 2230  278 279 1972 2228  236 344 345 1998  280 1736 2148 2232  2194 2329 2330 2345  2219 2220 2224 2281  2297 2316 2355 2356  2716 2837 2840 2841  1728 1736 1926 2200  1547 1612 1695 2838  1449 1513 1514 2661  1728 1736 2200 2232  931 932 1293 2841  931 2837 2838 2841  2504 2672 2675 2679  2015 2016 2114 2357  153 1526 1533 2375  1850 1876 1877 2668  1424 2153 2154 2155  218 219 997 2158  217 995 2156 2158  1233 2589 2733 2735  1524 1538 2155 2156  975 976 1313 2866  215 216 995 2156  1476 1504 1505 2308  1359 1366 1369 2735  1542 2131 2201 2234  1233 1359 1369 2735  1233 1359 2589 2735  2002 2003 2112 2178  1136 1144 1355 2570  218 219 998 2159  212 993 1006 2152  2317 2324 2368 2448  205 206 277 1972  277 289 2202 2229  1944 2135 2140 2231  1542 2131 2150 2201  1390 1392 2165 2381  1995 1996 2113 2254  217 218 997 2158  2131 2132 2156 2168  209 286 287 1974  1968 2182 2271 2394  329 341 1760 2270  286 287 1528 2151  1009 2169 2172 2209  998 2159 2162 2379  2163 2191 2197 2198  289 1972 1973 2228  231 232 2190 2193  1430 1916 2179 2189  1733 1742 1751 2144  2220 2281 2283 2284  235 236 1998 2178  813 1876 1877 2755  1136 1137 1355 2565  2163 2176 2182 2188  931 2833 2837 2838  1344 2329 2332 2340  1304 1315 1378 2858  1306 1308 1378 2858  2513 2657 2695 2708  1051 1348 2221 2342  1348 2188 2221 2342  2146 2165 2379 2381  328 2262 2263 2264  283 284 1969 2228  2147 2217 2220 2221  225 237 343 1997  2147 2188 2220 2221  2138 2191 2196 2197  2174 2220 2223 2224  365 1037 1039 2296  358 359 2223 2279  2176 2190 2191 2220  2174 2176 2190 2220  1049 1348 2337 2419  273 2219 2222 2224  772 1866 2655 2695  794 2736 2737 2738  280 1970 1971 2228  235 1998 1999 2178  317 318 2254 2255  281 2142 2148 2228  328 1750 1751 2262  333 1755 2243 2272  327 328 1750 2263  602 1834 2533 2534  1926 1933 2199 2230  1933 2140 2199 2230  1486 1487 1492 2139  1554 1645 2552 2553  2138 2139 2141 2212  120 229 1916 2179  340 1432 2189 2275  2181 2186 2237 2243  1675 2326 2472 2539  2133 2138 2139 2141  2130 2139 2141 2169  2131 2201 2202 2234  1341 1345 1390 2343  2181 2239 2243 2269  1785 2391 2393 2394  1747 1934 1966 2259  2141 2146 2166 2170  316 328 1751 2203  462 463 1784 2393  2329 2330 2331 2386  2238 2241 2403 2416  231 2178 2179 2193  2237 2240 2287 2413  1750 1932 2262 2263  318 319 1602 2256  1751 1967 2204 2262  483 2415 2420 2421  2215 2238 2403 2416  772 1865 1866 2655  2181 2214 2284 2417  229 351 2001 2002  1788 2396 2397 2398  269 2211 2212 2213  120 1430 1916 2179  273 1017 1020 2222  341 1760 2189 2270  225 237 1997 2178  273 1017 2219 2222  386 387 2311 2314  1023 2208 2222 2225  1770 1771 1962 2328  542 543 1807 2481  1567 1655 1656 2854  2184 2235 2242 2250  974 1310 2864 2867  1020 1023 2222 2225  1481 1482 1498 2295  1067 2382 2384 2387  1770 1958 1962 2327  2241 2408 2414 2416  2007 2008 2115 2311  1023 1340 2208 2222  387 388 2306 2311  1020 1023 1340 2222  386 1763 2314 2315  268 1010 1012 2211  402 1051 1348 2342  2134 2140 2230 2231  2161 2213 2341 2343  394 406 1057 2345  514 544 2026 2027  605 606 2535 2538  2140 2150 2166 2231  2307 2352 2357 2358  1056 1344 2329 2340  288 289 2228 2229  975 976 1312 2866  1595 1596 1683 2354  1596 1683 1684 2401  2778 2845 2849 2868  2135 2140 2150 2231  974 1311 1325 2865  2134 2140 2166 2231  2375 2376 2377 2380  974 1325 2864 2865  1259 1261 2800 2833  437 2352 2357 2358  1261 2800 2803 2838  1526 2160 2375 2376  239 240 1923 2201  1527 1629 2157 2373  1865 1866 1953 2655  449 450 1533 2374  450 1533 2374 2375  1650 1705 2215 2405  288 2151 2229 2234  461 2238 2353 2392  194 239 1923 2201  1298 1300 1314 2849  1683 1684 2245 2401  937 1298 1300 2849  1782 2316 2355 2372  931 1291 2833 2838  240 1729 2201 2202  2298 2302 2482 2484  2245 2246 2299 2478  1031 2282 2284 2417  482 1084 2414 2415  931 1291 1293 2838  1075 1076 1347 2408  2833 2837 2838 2839  1265 1268 1373 2807  466 467 2398 2399  2426 2430 2433 2434  2180 2181 2185 2269  1754 2186 2243 2271  1102 1104 1156 2435  1136 1355 2565 2570  2176 2181 2239 2283  863 1885 1886 2786  503 504 2442 2447  1268 1373 2798 2807  607 2034 2035 2535  863 1885 2786 2788  2649 2720 2748 2825  390 1767 2247 2321  469 470 1791 2401  85 86 1587 1829  2183 2236 2251 2300  2348 2363 2536 2597  909 1280 2823 2824  1773 1937 1939 2301  1954 2649 2720 2765  1278 2822 2823 2827  1757 1936 1962 2251  909 910 1280 2823  2183 2185 2236 2294  2218 2236 2287 2294  1276 2820 2821 2855  453 454 1064 2378  1936 2251 2272 2327  1844 1853 2656 2657  732 1844 1853 2656  2215 2335 2404 2419  544 545 2303 2483  1439 1503 1504 2307  492 1099 2429 2430  2192 2256 2257 2334  1845 1950 1953 2655  912 2827 2828 2829  1445 1509 2440 2468  1724 1945 2195 2198  1600 1687 1688 2257  622 672 673 2057  1635 1639 1660 2716  1844 2507 2655 2656  134 498 1443 2467  734 735 1846 2659  988 1042 1069 2386  761 762 1857 2699  736 2503 2654 2660  1852 1931 1965 2669  771 1865 1873 2657  580 581 2050 2502  506 507 2442 2461  56 988 1562 2331  1687 1688 2257 2334  328 1751 2203 2262  1445 1446 1510 2532  135 1718 1803 2468  1502 2249 2297 2315  327 1749 1750 2263  91 549 1592 1593  875 876 1256 2798  2164 2262 2263 2264  1749 1750 1932 2263  544 1809 2321 2482  603 604 2033 2535  1844 1853 1873 2657  1373 2798 2803 2807  1132 1335 2555 2557  2138 2143 2147 2197  56 57 988 1562  621 673 674 2056  81 82 1583 1918  2509 2589 2676 2681  622 623 672 2057  1754 1755 2243 2397  2181 2186 2214 2237  695 696 762 2061  401 1047 1050 2337  1245 1247 2773 2826  631 1127 2550 2552  1586 1674 2472 2540  1460 1519 2746 2771  40 1322 1554 1619  989 1245 1283 2771  437 1775 1776 2368  1144 2562 2569 2570  329 330 2267 2270  2305 2562 2569 2570  2746 2771 2826 2828  1101 1140 1142 2431  2517 2620 2699 2700  1169 1172 1357 2581  2505 2584 2587 2676  1260 1262 1373 2803  1752 2265 2266 2270  2175 2269 2270 2275  668 1835 2540 2597  606 607 2535 2538  2174 2175 2189 2270  438 1776 1777 2366  2363 2364 2558 2642  330 2239 2269 2270  2297 2316 2355 2372  2174 2176 2190 2266  505 506 1799 2454  2237 2243 2272 2397  848 1252 2768 2782  1834 1939 2359 2533  1165 2588 2591 2737  501 572 2043 2044  1652 2332 2333 2334  375 386 387 2008  77 1578 1579 1863  2649 2718 2720 2748  365 366 2295 2296  773 1866 1867 2695  2218 2277 2288 2293  2180 2218 2277 2294  843 844 1247 2776  785 1224 2722 2724  843 1245 1247 2773  718 2558 2629 2641  2302 2319 2543 2566  2070 2071 2123 2658  2830 2831 2832 2836  2302 2318 2533 2543  2302 2318 2320 2566  2522 2578 2684 2687  1196 1223 1363 2634  1782 2315 2316 2372  1639 2716 2840 2841  2071 2072 2123 2658  2297 2315 2316 2372  730 731 734 2073  932 1292 1295 2841  614 1833 1834 2533  713 1196 2635 2637  770 1863 1864 2706  699 700 758 2063  2049 2050 2121 2502  746 747 1207 2672  1270 2680 2681 2796  383 1435 1762 2310  162 1221 1465 2692  126 383 1435 2313  435 1773 2356 2359  1642 1699 2631 2723  2520 2643 2754 2786  613 614 1833 2544  1219 1222 1365 2688  578 600 2051 2052  115 116 284 1425  889 2743 2810 2873  1772 1782 2316 2356  1230 1231 1267 2734  2301 2305 2356 2359  434 435 2356 2358  2508 2509 2514 2681  73 74 778 1575  2649 2748 2777 2825  866 1712 1888 2791  2318 2359 2533 2534  636 637 1132 2557  1228 2730 2732 2808  1833 1939 2533 2544  436 437 2357 2358  1211 1366 2676 2677  2518 2589 2733 2735  966 967 1304 2858  34 1225 1551 2725  438 1776 2366 2368  1212 1270 2680 2681  2363 2364 2367 2558  440 2352 2369 2370  90 91 1592 1813  773 774 2126 2708  2643 2653 2683 2831  334 2185 2251 2272  2363 2626 2628 2629  1833 1834 1939 2533  709 710 1194 2632  1224 1226 1333 2724  849 862 2088 2094  2185 2237 2243 2272  1572 1712 1889 2791  395 988 1042 2331  2520 2645 2786 2831  1903 1960 1964 2720  2837 2838 2839 2841  1936 1962 2251 2327  1047 2332 2333 2334  1576 1663 1664 2712  1635 1639 2716 2841  2517 2620 2622 2694  1801 1822 2464 2465  777 832 2085 2086  1170 1175 1190 2592  800 820 2075 2076  820 1882 2749 2765  1316 1376 2869 2871  682 1176 2609 2610  1801 1822 1948 2465  811 812 2752 2753  68 870 1570 2794  53 1320 1560 1626  950 956 957 2104  53 1320 1328 1560  809 811 812 2080  399 1046 1320 2336  2513 2514 2656 2797  400 1048 2336 2337  1894 2742 2787 2788  2662 2663 2759 2775  2763 2858 2867 2870  1258 1259 1375 2800  877 1258 1259 2800  886 1265 1268 2806  799 800 821 2075  1048 2335 2336 2337  888 920 921 2098  681 682 1176 2609  440 441 2352 2370  899 900 2098 2810  2161 2163 2194 2338  144 1453 1454 2756  283 2142 2228 2233  888 889 2810 2873  147 894 1457 2813  2746 2827 2828 2829  2147 2163 2176 2188  976 1313 2866 2868  1402 1409 1421 2862  404 405 1054 2341  2254 2255 2261 2264  931 932 1292 2841  1655 1656 2762 2854  750 1210 1213 2679  2161 2339 2343 2345  2558 2629 2641 2642  113 114 892 1406  951 952 1908 2792  1828 1843 2537 2597  750 751 1213 2679  113 891 892 1406  1187 1188 1353 2618  780 781 2708 2872  612 613 1832 2544  1821 1822 1948 2465  395 396 988 2331  1237 1360 1391 2638  2861 2862 2864 2867  2324 2364 2367 2560  1307 1396 2855 2859  662 1167 1168 2591  1395 1396 1414 2859  943 944 2850 2851  2247 2305 2316 2432  585 1821 1822 2465  76 77 1578 1863  1773 2301 2356 2359  433 434 1772 2356  904 905 1274 2818  2592 2593 2594 2595  168 169 1189 1471  1314 2849 2868 2869  717 1202 2639 2641  2349 2350 2351 2614  2326 2561 2563 2566  89 90 1591 1715  1306 1308 2858 2860  2318 2324 2471 2534  2444 2451 2546 2605  647 1147 1149 2572  1292 1295 2837 2841  149 214 1330 1523  2317 2349 2364 2448  2744 2776 2777 2824  2350 2609 2610 2611  716 717 1202 2639  266 2207 2209 2210  2137 2217 2220 2222  911 1282 1283 2826  1300 1314 1381 2849  271 272 1017 2217  2444 2451 2458 2605  2141 2211 2212 2213  361 1031 1033 2417  363 2288 2289 2290  363 364 1036 2290  2304 2317 2352 2368  2174 2224 2225 2227  2218 2290 2293 2294  464 2393 2394 2395  2304 2317 2324 2368  2145 2164 2344 2386  1283 2771 2826 2828  2304 2324 2368 2534  1012 1013 1341 2213  911 912 2827 2828  999 1065 1339 2165  1320 1328 1560 2336  2194 2329 2332 2340  2304 2318 2324 2534  394 1042 1057 2386  2146 2165 2166 2379  451 1060 1061 2374  1061 1346 2374 2384  57 1071 1628 2389  911 912 1283 2828  1047 1050 2337 2340  1131 2557 2558 2560  1131 2557 2559 2560  1062 2160 2375 2380  1062 1329 2160 2375  362 1033 1034 2289  451 1062 1329 2375  966 1317 2857 2870  451 2374 2375 2377  483 1084 1087 2415  483 1086 2420 2421  489 490 1094 2426  2248 2430 2432 2434  2184 2422 2424 2425  451 1062 2375 2377  1183 2572 2614 2615  451 452 1062 2377  394 2329 2345 2386  1559 1624 1649 2403  1351 2429 2498 2570  1130 1191 1205 2623  2145 2344 2383 2386  1077 2407 2486 2487  2540 2599 2600 2628  83 670 1584 1585  1957 2366 2368 2448  706 1191 1205 2623  2324 2364 2448 2536  2157 2384 2387 2388  429 469 470 2023  643 1144 2569 2570  643 644 1144 2569  2164 2194 2330 2345  652 653 1154 2577  1042 1057 1068 2386  2330 2331 2386 2389  1785 1968 2391 2394  2182 2214 2215 2394  2215 2419 2420 2421  462 1784 2258 2393  647 648 1149 2575  1687 2215 2257 2258  421 464 465 2018  2238 2393 2394 2395  684 1179 2610 2614  1635 1661 1695 2839  785 1223 1225 2722  430 431 468 2023  2194 2329 2330 2332  35 1551 1617 2723  1353 2608 2610 2618  661 662 1167 2591  644 1144 2562 2569  2615 2639 2641 2642  1152 1475 2574 2576  686 687 1149 2616  687 1149 1185 2616  1202 1203 1387 2641  646 647 1147 2572  2245 2354 2401 2402  1644 1672 2540 2628  1180 1200 1202 2639  1791 2354 2401 2402  44 1319 1556 2493  2319 2493 2495 2551  2746 2750 2827 2829  1357 2581 2583 2590  750 1210 2677 2679  2238 2241 2353 2403  441 442 2352 2357  949 950 1566 2853  2241 2408 2409 2411  556 2493 2494 2496  2241 2245 2409 2410  556 1112 2493 2495  1196 1197 1239 2637  791 1231 2733 2734  440 441 2352 2357  467 2396 2398 2400  658 659 2585 2587  885 886 1265 2806  2237 2241 2413 2414  2237 2395 2399 2416  2218 2287 2290 2294  2237 2287 2413 2414  2241 2411 2413 2414  2578 2684 2687 2688  466 467 1788 2398  488 489 1093 2424  1350 2423 2425 2433  843 1247 2773 2776  1462 1463 1518 2770  942 943 962 2106  1871 1887 1955 2643  22 23 935 1545  2423 2425 2433 2434  556 557 1113 2496  878 879 1260 2803  2425 2426 2433 2434  2242 2250 2425 2434  159 841 2770 2771  1500 1501 2235 2313  2433 2434 2436 2439  557 1114 1115 2496  641 1140 1156 2435  1245 2771 2773 2826  840 1462 2769 2770  896 897 2745 2810  2757 2823 2825 2871  176 1105 2437 2439  547 1811 1812 2485  936 937 2845 2847  1479 2423 2434 2439  1377 2834 2837 2847  1404 1411 1907 2852  1371 2776 2777 2824  496 2433 2436 2439  971 1308 2861 2863  1546 1639 2840 2841  9 1394 1395 2860  495 1102 1104 2436  2430 2433 2434 2436  966 2857 2858 2870  1308 1310 1378 2861  494 495 1102 2436  1561 1652 2332 2333  1560 1650 2334 2405  169 170 690 1472  394 395 2329 2331  1102 1104 2435 2436  502 573 574 2044  110 1404 1411 1907  1002 2167 2169 2170  1796 2360 2448 2452  213 214 994 2155  490 1096 2427 2428  1777 1796 2360 2448  1037 2291 2293 2296  1779 2369 2370 2371  1089 1106 1350 2423  1354 1361 2560 2573  440 441 1779 2370  1777 1795 1796 2360  507 1800 1801 2459  1130 1205 2558 2623  1164 1233 1359 2589  2522 2683 2685 2797  2578 2687 2689 2690  2308 2369 2370 2371  125 1434 1435 2310  2290 2291 2293 2294  2453 2455 2524 2525  1092 2296 2422 2424  2326 2367 2555 2557  1034 1036 1343 2286  1817 2516 2524 2525  2746 2826 2827 2828  1164 2588 2589 2733  61 1409 1564 2863  1411 1717 1906 2852  659 1164 2588 2589  951 952 2761 2850  609 1589 2539 2541  2443 2455 2457 2518  2744 2746 2826 2827  659 660 2585 2588  1817 2466 2516 2519  13 905 1398 1399  581 1817 2516 2524  2855 2856 2857 2859  1089 1091 1350 2423  968 1307 1396 2859  2720 2748 2763 2778  2507 2513 2514 2656  904 1399 1400 2816  1480 2184 2250 2422  2460 2502 2516 2528  2818 2819 2821 2822  12 979 1321 2820  1157 1158 1357 2581  15 903 1273 2816  1084 2408 2414 2415  582 583 2527 2528  906 1274 1275 2818  1158 1357 2581 2583  1427 1491 1492 2130  2453 2460 2463 2586  2245 2410 2413 2501  1488 2130 2153 2171  185 992 1331 2172  2507 2514 2648 2656  89 1715 1830 2473  1158 1160 1357 2583  2242 2247 2248 2323  20 973 1609 2864  1402 1403 1410 2853  2044 2045 2119 2442  498 569 570 2042  642 643 2568 2569  984 985 1191 2625  2750 2757 2819 2822  410 433 2012 2013  1306 2858 2859 2860  690 691 1472 2618  1877 2644 2668 2755  540 2118 2476 2483  659 2585 2587 2588  2322 2493 2494 2496  576 577 2052 2502  751 2679 2680 2684  2469 2474 2475 2489  656 1323 2579 2582  904 905 1399 2818  521 522 549 2030  537 549 2474 2476  637 638 2557 2559  2572 2614 2616 2617  1184 1353 2614 2618  57 988 1562 2389  680 692 1188 2608  585 2465 2528 2531  134 135 1444 1803  2514 2522 2656 2797  1479 1500 1501 2250  179 367 1040 2295  1430 1494 2174 2179  1430 1494 1495 2174  60 446 447 1629  546 547 1811 2484  128 1437 1763 2315  121 1430 1916 2189  545 546 2025 2483  2181 2186 2214 2271  2137 2147 2217 2220  59 60 446 1629  649 650 1152 2574  511 546 547 2025  1766 1773 1937 2301  1707 2145 2157 2388  2025 2026 2118 2483  1629 1707 2157 2373  726 727 738 2071  545 2025 2026 2483  2298 2322 2497 2498  839 1242 2767 2769  738 739 1450 2664  2466 2503 2507 2514  558 559 2497 2498  1113 2494 2496 2497  1404 1420 1421 2851  452 1062 1063 2377  1043 1044 1344 2329  1113 1116 1336 2497  238 239 2110 2206  1729 1741 2201 2202  1679 2319 2470 2491  196 250 1531 1924  54 398 1561 2333  559 1117 2429 2498  1547 1613 1636 2801  2512 2522 2648 2656  1262 1263 1373 2807  558 1117 1352 2498  1636 1662 1695 2839  26 27 981 1547  1115 1137 1352 2565  2246 2292 2427 2499  539 2469 2475 2476  557 558 2496 2497  472 1073 2404 2421  24 933 934 1611  109 110 1404 1907  2514 2522 2678 2680  2578 2679 2684 2688  2504 2578 2679 2688  35 983 1225 2723  2504 2506 2578 2648  22 1610 2843 2846  735 736 2503 2648  1800 1801 1948 2465  1581 1582 1669 2703  504 505 2447 2454  1642 1669 1670 2450  602 603 2471 2535  50 476 1327 1624  742 743 2648 2666  365 1038 2293 2295  2503 2648 2661 2664  742 743 2648 2658  247 248 254 1978  2504 2522 2578 2679  321 1600 1601 2257  1789 1941 2396 2400  2150 2160 2376 2380  2522 2578 2679 2684  1789 1790 1941 2400  2729 2730 2731 2734  2308 2346 2369 2371  1484 1494 1495 2174  885 886 1267 2806  359 1028 2223 2281  274 275 1020 2225  2144 2145 2164 2253  1540 1541 2157 2376  52 1074 1328 2405  1013 1015 2216 2341  52 474 1074 2405  1134 1136 1144 2562  2515 2517 2518 2620  2716 2835 2837 2847  865 1887 2714 2785  1632 1665 2523 2731  2248 2298 2429 2500  638 1134 1136 2562  639 1136 1137 2565  2317 2324 2559 2562  1125 1335 2550 2563  1007 1340 2208 2210  980 1610 2843 2865  1125 1138 1335 2563  2508 2734 2735 2809  1570 1658 2784 2794  69 869 870 1570  778 779 1575 2712  1775 2359 2368 2534  2515 2695 2709 2711  2513 2515 2523 2711  34 786 1225 2725  35 1225 1551 2723  1251 2779 2781 2830  935 936 2846 2847  539 1804 1910 2354  1710 2326 2551 2552  2520 2645 2751 2752  843 2773 2774 2776  1646 1679 1708 2491  2326 2557 2561 2563  1625 1705 2405 2406  1679 1680 1708 2470  399 1047 2333 2336  399 1320 2333 2336  2486 2488 2489 2501  2651 2663 2774 2782  2299 2303 2322 2491  2245 2246 2299 2501  1110 2492 2494 2501  2520 2645 2663 2752  2515 2706 2709 2710  2662 2759 2760 2775  996 2159 2160 2380  2653 2781 2830 2831  1966 2182 2198 2259  2779 2781 2782 2831  439 2352 2366 2369  2504 2522 2578 2648  236 237 2178 2196  1725 1748 1966 2198  240 1981 1982 2110  581 582 2502 2516  440 1779 2369 2370  2453 2460 2516 2528  2134 2140 2143 2199  2453 2460 2463 2528  2440 2460 2528 2531  2252 2255 2256 2330  322 323 2254 2257  1934 1945 1968 2182  2147 2163 2191 2197  1125 1126 1335 2550  2324 2557 2559 2562  439 1778 2366 2369  391 392 2306 2323  1777 1778 1795 2366  180 181 1483 2278  2242 2247 2306 2323  373 389 2006 2007  2318 2324 2557 2562  512 545 2025 2026  2319 2322 2496 2498  208 287 1973 1974  2317 2559 2560 2573  501 1794 1795 2446  2645 2650 2786 2831  503 1796 2360 2452  1828 2348 2537 2597  500 1793 1794 2441  2307 2308 2352 2370  603 1826 2471 2534  439 1777 1778 2366  691 1189 1471 2608  1940 1941 1958 2240  2242 2306 2323 2328  1065 1392 2378 2379  91 537 549 1593  879 2801 2803 2838  1778 1794 2371 2446  1718 1802 1823 2468  494 1100 1103 2433  2535 2538 2542 2543  2350 2361 2451 2612  2325 2326 2539 2551  2471 2535 2538 2543  1681 1708 2474 2491  2325 2326 2472 2539  1591 1679 2470 2473  533 611 2036 2037  499 500 2043 2442  659 660 1164 2588  2311 2312 2313 2314  157 913 1285 2829  509 2442 2461 2467  1140 1142 2431 2568  608 1588 1589 2539  390 2247 2306 2323  1361 2560 2572 2573  607 608 2535 2539  1588 1589 1676 2539  1588 1675 1676 2539  640 2561 2564 2565  1115 1137 1139 2564  2326 2551 2563 2566  770 1864 2696 2706  638 1135 2557 2561  2443 2451 2457 2465  2462 2466 2519 2660  2326 2555 2557 2563  471 1596 1597 2401  389 1766 1767 2247  2301 2302 2305 2359  2297 2305 2316 2432  771 772 2083 2126  1886 1955 1956 2643  9 970 1394 2860  2520 2643 2786 2831  2504 2514 2522 2648  169 690 691 1472  634 635 1130 2556  816 817 2077 2753  9 969 970 2860  634 1129 2554 2555  2752 2753 2759 2760  143 815 816 2646  1454 1455 1519 2662  2324 2367 2557 2560  1573 1869 2713 2791  2088 2089 2124 2789  1554 1619 2553 2554  2523 2710 2711 2712  1628 1653 2145 2389  870 2090 2091 2789  867 868 2789 2791  802 818 819 2076  628 1139 2495 2564  219 220 1000 2162  48 1558 1623 2487  853 854 870 2090  2319 2498 2564 2566  321 1744 1914 2257  1115 2498 2564 2565  807 808 813 2079  2773 2774 2775 2776  1115 2496 2498 2564  496 1106 2433 2437  1125 1126 2548 2550  645 646 1146 2573  496 1103 1106 2433  645 1133 1134 2573  454 1392 2378 2381  645 1133 1146 2573  1727 1728 1926 2200  2305 2568 2569 2570  2131 2202 2229 2234  1766 1767 2247 2301  1891 1902 2792 2793  1427 2130 2142 2173  1903 1904 1960 2720  1148 1151 1337 2574  1903 2717 2720 2795  2750 2757 2822 2827  650 651 1153 2574  1844 1865 1873 2657  2521 2621 2652 2719  2579 2580 2582 2584  2238 2394 2395 2416  657 658 2583 2584  2509 2587 2589 2676  290 302 338 1989  2509 2587 2588 2589  2750 2816 2819 2822  2361 2464 2465 2593  1683 2245 2354 2401  1766 1767 1937 2301  1005 1488 2171 2172  2361 2365 2464 2593  1272 2816 2817 2822  584 585 1821 2465  339 2267 2268 2275  1771 2251 2273 2300  1433 1498 2180 2274  463 464 2392 2393  300 301 336 1988  1932 2199 2262 2263  1934 1945 1966 2182  1411 1717 2743 2852  585 586 2464 2531  1431 1432 1496 2189  233 234 1999 2178  677 2347 2545 2606  668 669 2540 2599  667 668 2597 2599  2306 2311 2312 2328  679 2347 2536 2545  489 1093 1095 2424  2347 2363 2536 2545  125 1434 2274 2310  671 672 2547 2601  2364 2558 2560 2642  947 948 954 2102  667 679 2120 2598  2643 2650 2653 2831  464 2018 2019 2392  2363 2536 2545 2597  427 459 2021 2022  2560 2615 2641 2642  335 1987 1988 2268  606 607 2034 2535  1776 1957 1959 2368  602 614 1834 2533  613 614 2543 2544  682 1177 2609 2611  525 603 604 2033  707 984 1191 2625  2744 2776 2824 2826  904 1272 1274 2818  1756 1936 1940 2272  500 501 572 2043  2451 2591 2612 2638  130 131 443 1440  2440 2594 2595 2596  442 2307 2352 2357  1078 1081 1347 2408  687 688 1185 2619  2013 2014 2114 2357  815 1452 1878 2644  1473 1507 2618 2619  506 1799 2454 2458  2362 2445 2451 2636  171 689 1473 2619  1184 2614 2618 2619  687 1185 2616 2619  761 762 2693 2700  2346 2349 2614 2617  936 937 1298 2845  2444 2451 2546 2604  936 937 1299 2847  708 1193 2626 2627  1518 2646 2662 2756  708 709 1193 2627  709 1193 1194 2627  709 1194 2627 2632  1193 1334 2629 2633  1929 1960 2720 2815  2362 2451 2636 2640  781 1870 1871 2714  717 2629 2639 2641  2363 2540 2599 2628  1301 1380 1381 2849  1756 1788 1940 2272  642 643 1143 2569  147 894 895 2813  893 925 926 2101  1201 2629 2636 2639  1203 2558 2560 2641  906 907 1275 2818  1755 1756 1788 2272  242 243 2149 2206  1490 2129 2142 2233  209 210 286 1974  2362 2363 2445 2545  893 894 926 2101  238 250 252 1976  646 1145 1148 2571  1131 1203 1205 2558  1131 1203 2558 2560  1745 1746 2187 2391  58 458 1563 2388  1001 1002 2167 2170  1486 1493 2137 2139  224 1488 2152 2171  274 275 1021 2227  1745 1746 1784 2391  1486 1487 2139 2207  1871 1872 1955 2721  2137 2210 2212 2222  446 1070 2373 2388  247 1605 1606 2206  240 1981 2110 2206  2651 2774 2779 2782  1977 1978 2110 2206  2138 2141 2212 2213  2161 2194 2338 2339  1066 1068 2382 2385  2249 2434 2436 2439  215 994 2155 2156  1730 1734 2202 2231  200 282 1969 1970  1272 1274 1374 2822  2520 2645 2651 2831  2146 2343 2381 2385  912 913 1285 2829  1423 1424 1490 2153  2134 2148 2166 2231  2141 2167 2169 2170  999 2162 2165 2379  2651 2663 2774 2775  810 1874 2742 2751  58 59 458 1563  602 2471 2533 2543  1339 1389 1390 2165  810 822 2753 2760  215 994 995 2156  269 1012 2211 2213  2645 2751 2752 2760  59 446 458 1563  2147 2217 2221 2342  2146 2150 2166 2379  280 281 1970 2228  335 1757 1758 2251  2512 2521 2522 2656  2249 2297 2432 2436  891 892 2810 2811  1480 1481 1499 2184  2521 2621 2708 2719  363 1036 2286 2290  13 905 1321 1398  1745 2187 2257 2258  1725 1726 1749 2197  2183 2184 2236 2294  308 324 1992 1993  317 1742 1743 2253  892 893 1920 2812  327 2261 2263 2264  1001 2162 2165 2170  1745 1784 2258 2391  3 189 1407 1458  446 447 1058 2373  1485 1486 1493 2137  2130 2167 2169 2171  1012 1389 1390 2213  1413 1419 2811 2819  28 881 882 1548  883 1264 1326 2805  237 1997 1998 2178  888 1895 1901 2873  1495 2174 2175 2189  1017 1020 1340 2222  29 882 1326 2804  2147 2161 2216 2342  403 1050 1053 2339  994 995 1338 2156  185 1005 1488 2172  719 732 733 2073  1496 2175 2189 2275  2237 2272 2396 2397  1015 1052 2216 2341  266 267 2209 2210  1522 1538 2132 2151  559 2497 2498 2500  2521 2522 2656 2797  2513 2521 2656 2797  1450 1514 1515 2506  1487 1492 2130 2139  1058 1059 1346 2373  940 952 1909 2792  272 273 1018 2219  274 275 2225 2227  1450 1514 2661 2664  1332 1484 2226 2227  750 1211 1212 2677  277 289 1972 2228  1513 1514 2503 2504  1449 1513 2654 2661  323 1745 1746 2187  212 224 1006 2152  1719 1720 1738 2173  745 757 1222 2670  2509 2589 2681 2735  163 757 1221 2670  517 518 540 2028  940 1902 1909 2792  757 1221 2670 2689  1343 2286 2291 2292  2514 2678 2680 2681  163 745 757 2670  2514 2522 2680 2797  50 51 475 1559  2522 2680 2685 2797  1348 2188 2342 2419  2182 2188 2215 2338  2522 2679 2680 2684  2522 2680 2684 2685  2507 2508 2513 2655  782 783 825 2082  462 463 2392 2393  1482 2276 2277 2295  1746 1747 1934 2259  2286 2287 2291 2292  2690 2691 2766 2780  2183 2185 2236 2251  2286 2287 2290 2291  426 459 460 2021  1013 1015 1054 2341  1688 2256 2257 2334  2690 2691 2692 2766  2663 2691 2766 2782  2192 2254 2256 2257  2663 2766 2767 2768  1653 1691 1706 2330  2236 2291 2424 2427  848 1253 2780 2782  1771 1962 2251 2328  1602 1689 2252 2256  2164 2203 2262 2264  892 1406 2811 2812  332 1754 1755 2243  332 333 2268 2269  943 944 963 2107  1030 1031 2282 2284  2513 2655 2695 2698  1348 1384 2221 2420  1754 1786 1787 2186  550 1123 2486 2501  1952 2655 2695 2698  285 286 2228 2233  1498 2277 2294 2295  2242 2306 2312 2328  859 865 866 2093  1437 1501 2249 2314  2445 2600 2601 2631  850 874 2088 2089  850 873 874 2089  2247 2249 2314 2316  1034 1082 1343 2286  1790 1805 2400 2402  2215 2404 2408 2421  759 2620 2697 2698  1668 2450 2526 2704  2236 2287 2291 2294  364 1035 2290 2293  1860 2602 2603 2604  850 851 873 2089  943 1904 1905 2747  2450 2602 2703 2704  335 2180 2185 2273  1901 1904 1905 2747  2517 2704 2705 2727  2304 2318 2359 2534  704 766 767 2066  2244 2285 2298 2299  2185 2218 2236 2294  2319 2493 2495 2496  561 1119 1122 2501  80 1582 1925 2703  1082 1343 2286 2412  1768 1769 1808 2323  1366 2589 2681 2735  1936 1958 1962 2327  2508 2515 2734 2809  1677 1710 2541 2551  1874 1884 1885 2742  1037 2291 2296 2424  1343 2286 2292 2412  75 776 1713 2710  1274 1275 1374 2822  776 1576 2710 2712  2319 2325 2542 2543  607 2472 2538 2539  1314 1316 1381 2869  610 611 2535 2542  1664 2523 2710 2712  849 862 863 2094  846 847 1249 2779  2508 2515 2518 2698  1580 1667 1668 2704  396 397 1044 2332  394 1042 2331 2386  1242 2767 2768 2769  1610 1634 1637 2844  1637 2842 2844 2846  271 1015 1016 2216  1610 2843 2844 2846  2443 2590 2591 2594  2715 2778 2793 2795  181 182 1332 1484  977 1314 2868 2869  399 400 1047 2336  1658 2715 2784 2794  837 838 990 2767  271 1017 2212 2217  1037 1092 1093 2424  2138 2147 2161 2213  1340 2210 2212 2222  2146 2165 2343 2381  1831 2473 2484 2542  1102 1140 2431 2435  159 160 840 1462  1610 1634 2844 2865  2276 2277 2280 2288  1644 1673 1674 2540  740 2658 2664 2665  2748 2763 2778 2869  277 1734 2202 2231  1423 1490 2129 2233  1453 1454 1518 2756  1723 1724 1945 2195  355 356 1024 2278  1505 2308 2574 2576  233 1723 1724 2195  131 132 1441 1780  2762 2778 2844 2866  129 130 444 1439  1610 1637 2844 2846  1656 1657 2762 2792  815 816 2646 2753  679 1842 2347 2536  678 1841 1842 2347  677 678 1841 2347  1618 1643 1700 2627  2549 2550 2551 2552  1444 1803 2467 2468  1196 1223 1239 2634  1038 2276 2293 2295  687 2614 2616 2619  685 1183 2614 2615  1667 1668 2704 2727  1333 2724 2729 2739  418 419 441 2017  815 816 2078 2753  1206 1365 2672 2688  817 818 1879 2756  2157 2373 2374 2384  1542 2150 2201 2376  198 1531 1608 1630  451 1061 2374 2377  998 2159 2379 2380  270 271 2212 2216  305 327 328 1991  792 793 1233 2733  481 1082 2412 2418  1231 1233 2733 2735  805 815 816 2078  364 1035 1038 2293  1116 1119 1336 2497  816 2077 2078 2753  2176 2181 2239 2271  483 1087 2415 2421  2215 2403 2404 2408  71 1572 1712 1889  792 793 1232 2733  814 2078 2079 2753  1002 1004 1010 2169  270 1013 1015 2216  860 864 865 2093  1004 1009 1010 2169  2214 2416 2417 2420  2522 2578 2687 2691  95 459 471 1597  1076 1078 1347 2408  1519 1520 2667 2746  51 474 1625 2406  1084 1087 1347 2408  2223 2279 2281 2283  1647 1702 1708 2491  2277 2293 2294 2295  1033 2289 2417 2418  1033 1083 2417 2418  2237 2241 2414 2416  1073 1075 1347 2408  1100 1350 2426 2433  562 1121 1123 2499  1099 1101 1351 2429  1755 2243 2272 2397  1034 1082 2286 2418  2683 2686 2691 2781  1498 1499 2183 2184  2184 2236 2242 2424  2309 2567 2568 2569  789 1227 1229 2728  2249 2432 2434 2436  490 491 1096 2428  1459 2746 2750 2829  1479 2249 2434 2439  71 1572 1573 1712  2350 2361 2607 2609  169 691 1471 1472  899 900 2764 2815  682 683 2610 2611  1459 1489 1520 2750  743 744 2648 2658  586 2464 2531 2532  784 785 1223 2722  2520 2645 2651 2663  1883 1954 2742 2765  1816 1846 1847 2660  676 677 2055 2598  2520 2647 2663 2752  1202 1387 2615 2641  1178 1180 1200 2640  2346 2576 2616 2619  71 72 1573 1712  793 1233 1234 2733  1354 1361 1387 2560  2645 2742 2751 2760  2444 2451 2457 2604  2517 2622 2705 2727  772 773 2126 2708  2293 2294 2295 2296  222 1004 2169 2171  771 772 2126 2708  783 825 826 2082  1596 1597 1684 2401  782 2708 2719 2721  1681 1682 1703 2489  551 1108 2486 2488  539 540 2118 2476  1756 1757 1936 2272  2646 2752 2753 2759  782 783 2708 2721  2244 2299 2479 2481  72 1573 1712 1869  810 2752 2753 2760  1119 1122 1336 2501  1870 1871 1887 2714  553 1110 2488 2492  819 820 1881 2749  1678 2319 2473 2551  1647 2489 2491 2492  2298 2497 2498 2500  2645 2649 2651 2775  219 997 1000 2158  1338 2156 2158 2168  2649 2662 2760 2775  2645 2649 2742 2760  2649 2741 2744 2749  1108 1110 2488 2501  558 559 1117 2498  2520 2644 2647 2691  860 864 2093 2094  1573 1712 1869 2791  1514 2504 2506 2578  997 1000 1338 2158  2645 2650 2786 2788  1451 1922 2644 2665  2072 2073 2123 2658  2682 2683 2686 2781  2117 2353 2392 2399  2720 2747 2815 2825  1210 1213 1365 2679  1574 1575 1662 2713  819 1881 2749 2758  2683 2686 2687 2691  887 1268 2798 2809  2515 2517 2620 2622  747 991 1208 2673  665 666 1172 2596  588 1446 2511 2532  137 576 588 1446  135 1444 1803 2468  1465 1514 2578 2671  856 857 868 2092  2509 2586 2587 2588  1718 1823 1824 2468  1646 1678 1701 2551  2651 2774 2775 2777  525 603 2032 2033  514 543 544 2027  1771 2251 2300 2328  1375 1388 2781 2830  1375 2653 2781 2830  2303 2319 2322 2491  537 549 2030 2476  754 1217 2686 2687  1375 2653 2682 2781  863 864 2789 2790  555 1112 1319 2493  1648 1682 2245 2489  864 865 2785 2790  547 2025 2031 2483  1216 1365 2684 2688  863 864 2785 2790  751 1213 2679 2684  2715 2784 2793 2794  1555 1621 1701 2549  1811 1812 1831 2485  2320 2498 2565 2570  602 614 2533 2543  636 1131 2557 2559  635 1130 1131 2558  1714 1829 1835 2540  2326 2550 2555 2563  732 744 2067 2658  1697 1710 2551 2552  441 1779 1780 2370  2363 2623 2624 2626  674 675 2546 2598  868 869 2784 2789  740 1451 1922 2665  986 1621 2493 2549  558 2496 2497 2498  18 972 1543 2863  1826 1957 1959 2324  1206 1207 1365 2672  161 838 839 2767  741 742 2069 2658  1216 1219 2687 2688  1757 1771 1962 2251  2783 2784 2789 2790  808 812 813 2079  735 736 1847 2660  1815 1816 1847 2660  2647 2663 2766 2767  1543 1564 2861 2863  747 1207 2672 2675  2675 2677 2678 2679  166 654 655 2579  30 1326 1549 1614  742 2665 2666 2668  776 831 832 2085  2517 2526 2727 2729  2443 2591 2593 2594  623 671 672 2057  856 868 2091 2092  2715 2716 2784 2842  673 1836 2547 2603  2043 2044 2119 2442  2707 2715 2716 2784  879 1261 2803 2838  1670 1671 2547 2631  2449 2456 2457 2604  2652 2713 2714 2719  2317 2364 2560 2572  2626 2627 2628 2629  1387 2560 2615 2641  682 2609 2610 2611  2523 2621 2799 2807  1663 1664 2523 2712  507 508 2459 2461  972 1543 1609 2861  1261 2800 2833 2838  680 1175 1190 2592  2621 2799 2800 2803  2621 2802 2803 2807  1509 2365 2440 2593  2515 2731 2734 2806  1259 1375 2800 2833  1459 2750 2816 2817  672 673 2057 2598  2363 2558 2629 2642  2450 2547 2601 2631  680 2592 2608 2609  26 981 1547 2838  1268 2798 2806 2807  750 2677 2679 2680  2363 2445 2599 2628  715 1199 1200 2640  683 2610 2611 2613  1179 1182 1353 2614  2509 2518 2589 2735  754 755 1219 2687  2621 2708 2712 2713  779 780 2708 2872  841 842 989 2771  886 887 1269 2809  2363 2445 2629 2642  862 1885 1894 2788  875 887 1268 2798  754 1216 1219 2687  1180 1181 1202 2615  1262 2801 2804 2807  1929 1960 1964 2720  1366 2589 2676 2681  775 1928 2709 2710  880 881 1262 2801  933 1294 1546 2841  730 734 735 2072  1929 2720 2741 2815  1952 2525 2655 2698  735 2503 2648 2659  2757 2821 2823 2871  1422 2743 2819 2856  988 1069 2386 2389  862 874 1894 2788  2512 2520 2666 2669  737 1848 1849 2654  2741 2757 2815 2825  2462 2503 2504 2678  740 2069 2070 2658  2674 2675 2677 2678  656 657 2583 2584  2505 2509 2676 2678  1815 2510 2519 2660  684 1180 1181 2615  2662 2663 2770 2775  745 1466 2670 2672  363 364 1035 2290  2745 2757 2764 2811  778 779 2126 2712  2686 2690 2691 2780  2691 2780 2781 2782  755 1220 2689 2690  753 754 1217 2687  1245 1282 1283 2826  1288 1290 1375 2833  25 26 1293 1612  2645 2663 2759 2775  2663 2770 2772 2775  1874 1885 1956 2786  907 1275 2818 2821  1250 1286 2779 2832  164 165 991 1467  1276 1305 2821 2855  1838 1859 1951 2604  1397 1415 1416 2855  759 760 2063 2693  2508 2513 2515 2809  2717 2761 2762 2763  2517 2702 2704 2705  717 1202 1203 2641  363 2286 2289 2290  19 972 973 1609  8 18 61 2863  2741 2757 2764 2815  774 775 830 2084  158 159 989 2771  2463 2590 2594 2596  1432 1496 2189 2275  865 866 1888 2707  930 1289 1292 2837  930 1289 2836 2837  294 329 330 1985  1573 1574 1662 2713  1289 2834 2836 2837  156 902 1273 2816  707 1191 2623 2625  863 864 1886 2785  810 811 2752 2753  2456 2517 2526 2704  2517 2622 2727 2731  766 767 2702 2704  707 708 984 2626  884 2805 2806 2808  34 787 1616 2725  1289 1292 1377 2837  2553 2556 2624 2625  2508 2509 2518 2735  982 2732 2805 2808  2520 2683 2691 2831  1867 1952 2695 2698  938 1299 1302 2848  2716 2835 2842 2847  1250 1380 2777 2832  1667 2622 2705 2727  900 1900 1901 2815  1893 1894 1954 2787  928 1289 2834 2836  2834 2835 2837 2847  927 2832 2834 2848  1416 1417 1422 2819  1295 1377 2837 2847  1954 2718 2742 2787  1295 1377 1379 2847  2745 2810 2812 2813  928 2830 2832 2836  2456 2517 2702 2704  985 1322 1619 2625  2650 2831 2832 2836  1411 1420 1422 2852  1414 1420 2763 2856  1904 1960 2720 2815  2450 2451 2457 2604  2520 2691 2782 2831  1901 1904 1960 2815  2720 2741 2815 2825  836 848 1252 2768  1413 1417 1422 2819  1247 1280 1282 2826  405 1054 2341 2343  2650 2651 2831 2832  2750 2757 2811 2819  811 1874 1875 2751  1518 2646 2662 2663  2645 2649 2760 2775  1099 1117 1118 2429  945 1906 1907 2852  1664 1665 2523 2710  1294 1546 1612 2841  62 1402 1409 1565  629 986 1124 2548  2652 2707 2714 2785  27 880 1547 1613  2182 2187 2215 2394  2649 2744 2777 2825  946 947 2850 2851  1381 2777 2824 2869  2763 2857 2858 2859  810 2742 2751 2760  2798 2799 2800 2803  1263 2804 2805 2807  1409 1414 1421 2862  751 752 1213 2684  875 876 1255 2798  1409 1414 2860 2862  1602 1689 1690 2252  1895 2743 2747 2873  157 1459 1460 2829  463 1784 1785 2393  1564 2861 2862 2863  1901 1904 2747 2815  1455 1520 2667 2814  1414 2763 2860 2862  1456 2745 2813 2814  322 323 1993 2254  2761 2763 2851 2853  2378 2382 2383 2384  1899 1900 1929 2741  66 67 1568 1908  2515 2620 2696 2698  935 2840 2846 2847  1599 1911 2258 2390  967 2855 2857 2859  1445 1510 2440 2532  2717 2720 2747 2763  1900 1901 1960 2815  2747 2761 2763 2851  1599 1687 2258 2390  1599 1600 1687 2258  716 1200 1202 2639  977 1312 2867 2868  941 960 2105 2106  1298 1313 2843 2845  75 776 1576 2710  157 1285 1460 2829  896 2745 2813 2814  1304 1306 1378 2858  1298 2845 2849 2868  1212 1214 1270 2680  2691 2781 2782 2831  879 1260 2801 2803  26 1293 1612 2838  2716 2835 2836 2837  75 1576 1577 2710  1836 1860 1861 2603  1459 1520 2746 2750  1250 1251 1286 2779  2748 2763 2825 2871  633 1127 1129 2554  672 1836 1918 2547  908 1277 1279 2821  2652 2716 2791 2839  1566 1567 1655 2854  1396 1414 1415 2859  8 18 971 2863  1955 2643 2669 2721  2649 2741 2744 2825  901 1459 2817 2829  324 325 2254 2261  949 950 2103 2850  940 941 2105 2850  672 673 1836 2547  941 960 961 2106  8 61 1394 2863  2763 2856 2857 2859  2450 2456 2602 2704  1634 1654 2762 2864  64 949 1566 1919  889 2098 2099 2810  64 65 949 1566  2450 2602 2603 2703  2450 2456 2526 2704  665 666 1173 2596  902 903 1273 2816  884 1264 1266 2808  2730 2731 2732 2808  2453 2466 2509 2586  250 1530 1531 2205  681 1174 1176 2609  838 839 1242 2767  2176 2190 2191 2195  14 15 904 1400  2147 2176 2191 2220  2136 2147 2191 2220  1592 1679 1680 2470  1785 1934 1968 2391  794 795 1236 2738  2457 2518 2526 2738  2457 2517 2518 2526  795 796 1237 2740  795 796 2739 2740  794 795 1235 2738  794 1235 2736 2738  21 980 1325 2865  23 1545 1611 2840  182 1332 1484 2227  1419 2811 2816 2819  663 1166 1169 2590  178 179 1040 1481  246 256 1978 1979  1600 1687 2257 2258  189 1408 1489 2812  408 444 2011 2012  1456 1520 2745 2814  641 653 1155 2567  2326 2367 2553 2555  707 984 2625 2626  2245 2299 2477 2478  2348 2536 2537 2597  2744 2771 2773 2826  1621 1646 1701 2549  2319 2495 2496 2564  1477 1504 2297 2577  745 1206 1222 2670  2649 2741 2749 2765  1080 2410 2411 2412  2750 2811 2816 2819  1591 1592 1679 2470  1422 2743 2852 2856  711 712 1363 2635  36 37 710 1552  1452 1517 2644 2646  1715 1812 1831 2473  1452 1453 1517 2646  939 1301 2832 2848  318 1603 2252 2253  1452 1516 1517 2644  2748 2777 2824 2869  1316 1376 1381 2869  2362 2445 2545 2546  927 939 2832 2848  2456 2457 2517 2526  2821 2855 2856 2857  2747 2757 2815 2825  1790 1805 1941 2400  539 540 2029 2118  1717 1905 1906 2852  944 945 1906 2852  1302 1379 2834 2848  1485 1493 1494 2137  927 1287 1302 2834  944 945 2851 2852  2770 2771 2772 2773  814 1877 2644 2755  319 320 2254 2256  840 1243 2769 2772  2663 2769 2770 2772  460 461 1911 2390  840 841 1243 2772  841 2770 2771 2772  466 1787 1788 2398  927 939 1302 2848  229 230 351 2001  937 1299 2847 2848  1429 2136 2177 2179  120 121 1430 1916  841 842 1244 2772  841 1243 1244 2772  58 458 1071 2388  845 1249 2774 2779  1580 1581 1668 2704  446 458 1563 2388  1668 1669 2450 2704  631 1555 2550 2552  2650 2785 2788 2790  577 1447 2510 2511  1854 2696 2698 2709  2650 2707 2715 2790  2718 2783 2788 2790  459 2021 2022 2353  2650 2718 2788 2790  986 1112 1319 2493  1642 1668 1669 2450  713 1195 2635 2636  1413 1422 2743 2819  67 68 1569 1711  1568 1711 1908 2792  2843 2844 2845 2846  1569 1657 2792 2794  2136 2137 2147 2220  976 1312 2866 2868  1658 2715 2842 2844  2715 2792 2793 2794  938 939 1301 2848  2515 2696 2698 2709  2798 2799 2803 2807  4 448 1527 1629  433 445 2012 2357  297 332 333 1986  1638 1663 2523 2802  2287 2292 2412 2413  1413 2743 2811 2819  2236 2246 2292 2427  655 1157 1158 2581  646 1146 1147 2573  1586 1714 1829 2540  1150 1185 1186 2576  897 2667 2745 2814  1987 1988 2111 2268  1481 2184 2295 2296  1405 1412 1413 2743  2513 2523 2621 2799  1274 1275 2818 2822  364 365 1037 2293  1061 1064 2378 2384  1399 1418 2816 2818  2517 2518 2729 2731  2818 2819 2820 2821  2131 2158 2167 2168  581 582 1818 2524  656 1159 2582 2584  2816 2818 2819 2822  165 1323 1468 2582  1979 1980 2110 2206  894 1457 1458 2812  1732 1733 1751 2144  331 1753 1935 2271  1456 1520 1521 2745  146 1455 1456 2814  320 321 1601 2256  294 295 330 1985  146 1456 1913 2814  460 461 2021 2353  371 391 2005 2006  1758 1761 2273 2274  1182 1184 1353 2614  687 1184 2614 2619  393 1770 1771 2328  411 412 434 2013  146 1455 1897 2814  2032 2033 2116 2535  146 1897 1913 2814  905 906 1274 2818  436 1775 2359 2368  905 906 1321 2818  883 884 1264 2805  906 1321 2818 2820  905 1321 1398 2818  893 894 1458 2812  182 183 1022 1485  2245 2410 2486 2501  148 894 1457 1458  1321 1398 2818 2820  2667 2741 2744 2749  36 710 711 2630  428 429 470 2022  1445 1509 1510 2440  504 1797 1798 2452  1841 1842 1927 2347  88 610 1590 2541  2324 2348 2536 2537  616 617 679 2054  2365 2593 2607 2608  2662 2667 2744 2749  183 264 276 2225  507 565 566 2040  148 893 894 1458  1800 2458 2459 2461  41 632 1322 1554  502 2044 2045 2442  774 2695 2708 2711  767 768 2065 2693  639 1136 2561 2565  1165 1167 1236 2591  660 661 1163 2585  1289 1377 2834 2837  105 106 1607 1917  1177 1178 1382 2611  91 92 537 1593  1377 1379 2834 2847  751 1214 2680 2685  789 790 1229 2730  140 1449 1450 2661  793 1232 2733 2736  1287 1377 1379 2834  1287 1289 1377 2834  2245 2402 2477 2478  928 1287 1289 2834  1790 1804 1805 2402  2460 2466 2516 2519  794 1236 2737 2738  1513 2462 2503 2504  2457 2591 2737 2738  786 787 1226 2725  1568 1569 1657 2792  796 1237 1239 2740  1193 1194 1334 2633  2715 2778 2844 2845  2715 2842 2844 2845  362 1032 2288 2289  1085 2415 2417 2420  844 1248 2774 2776  2842 2844 2845 2846  2763 2857 2858 2870  2715 2778 2792 2793  1249 1370 2768 2774  2715 2778 2792 2844  940 952 2761 2850  1555 1697 1701 2549  1547 1636 2801 2838  940 952 2761 2792  940 941 2761 2850  940 2717 2761 2792  31 1318 1615 2732  1640 2727 2728 2731  2518 2729 2733 2734  1665 2515 2523 2710  663 2590 2591 2594  808 812 2079 2080  2215 2416 2420 2421  2652 2716 2833 2839  812 813 2752 2755  1249 2768 2774 2782  21 1325 1544 2865  36 1552 1617 2630  2757 2819 2821 2856  948 949 1919 2853  2040 2041 2119 2442  2744 2757 2823 2825  2746 2750 2757 2827  464 2392 2393 2395  62 1409 1564 1565  883 1326 2804 2805  2757 2819 2821 2822  2819 2820 2821 2856  741 742 2658 2665  11 12 979 1397  907 1276 2820 2821  20 1544 1609 2864  974 2864 2865 2866  882 883 1263 2804  980 1297 1298 2843  22 980 1610 2843  768 769 1579 2705  1582 1583 1918 2547  80 81 1582 1925  974 2864 2866 2867  2136 2137 2174 2220  2138 2143 2147 2161  1326 1614 2804 2805  2717 2720 2763 2778  2218 2236 2237 2287  629 630 1126 2548  554 555 1111 2490  802 818 2076 2077  2143 2147 2161 2163  44 45 1319 1556  882 883 1326 2804  548 549 2031 2483  523 547 548 2031  54 1561 1626 2333  883 1263 2804 2805  872 873 2783 2789  2139 2207 2208 2210  801 819 820 2076  1485 1486 2137 2208  2320 2562 2565 2570  2137 2139 2208 2210  871 2783 2784 2789  1030 2281 2282 2284  138 139 1448 1930  2526 2722 2723 2725  767 1580 1581 2704  769 770 2622 2694  2215 2404 2419 2421  766 767 2693 2702  551 1108 1110 2488  1110 1336 2494 2501  46 553 554 2492  1777 1796 1957 2448  2667 2741 2744 2757  4 197 1527 1629  2214 2215 2416 2420  664 1169 2594 2596  279 280 2148 2228  2174 2220 2223 2283  2182 2188 2214 2215  2236 2251 2272 2327  1030 1362 1384 2281  2188 2214 2215 2420  1021 2223 2224 2227  859 860 865 2093  113 891 1406 1412  1650 1686 1687 2215  1686 1687 2215 2390  358 1027 1028 2223  2009 2010 2115 2311  383 1435 2310 2313  358 1027 2223 2279  1019 1021 2223 2224  1507 2346 2351 2441  1019 1021 1028 2223  359 2279 2281 2282  791 2729 2733 2734  359 2223 2279 2281  143 144 816 1453  1236 1360 2591 2738  892 925 2100 2101  813 814 1877 2755  1464 1516 1517 2647  2244 2285 2321 2323  793 1232 1235 2736  2457 2591 2638 2738  4 155 448 1527  1019 2219 2224 2281  2131 2150 2202 2231  780 1869 1870 2714  1019 2223 2224 2281  2147 2212 2213 2216  1511 2460 2510 2580  1498 2180 2277 2294  2188 2214 2284 2420  1157 1172 1357 2581  1120 2427 2499 2500  871 872 2783 2789  779 834 835 2087  893 1458 1920 2812  857 858 867 2092  780 1869 2713 2714  1806 1941 2240 2478  2240 2244 2246 2478  871 872 2090 2789  2130 2134 2141 2232  1265 1268 2806 2807  861 863 864 2094  239 251 263 1982  2235 2312 2314 2434  1501 2235 2314 2434  1640 2726 2727 2728  2131 2148 2166 2231  527 528 606 2034  1641 2725 2726 2727  790 791 1230 2730  2130 2153 2167 2171  529 530 608 2035  860 861 864 2094  219 998 2159 2162  2146 2161 2213 2343  234 235 346 1999  2136 2191 2193 2196  225 226 2177 2178  792 1231 1233 2733  1721 2179 2189 2190  246 247 255 1978  933 934 1295 2840  1932 2197 2199 2263  2183 2235 2242 2300  316 2203 2253 2255  934 935 1296 2840  2515 2518 2620 2698  2242 2300 2312 2328  201 281 282 1970  1677 1678 1701 2551  223 224 2152 2171  759 760 2693 2700  2064 2065 2122 2693  266 267 1008 2210  769 2064 2065 2693  1024 1026 1342 2280  537 2469 2474 2476  1646 1701 2549 2551  2137 2220 2222 2225  2244 2478 2479 2480  181 1025 1332 2226  279 1735 1736 2230  2134 2148 2230 2231  1646 1678 2319 2551  2244 2299 2478 2479  2298 2321 2481 2482  2244 2298 2321 2481  266 992 1331 2172  296 331 332 1986  1635 2716 2839 2841  94 1595 1596 2354  508 566 567 2041  2244 2285 2298 2321  1725 1748 1749 2260  330 331 1985 2267  1546 1635 1639 2841  100 319 320 1601  1002 1010 2169 2170  473 1074 2404 2405  1612 1635 2839 2841  498 510 2042 2442  2039 2045 2119 2442  275 276 1023 2225  2218 2282 2283 2284  2181 2185 2237 2243  275 1020 1023 2225  1926 2134 2199 2230  264 1485 2208 2225  982 1228 2732 2808  183 264 1485 2225  1426 1490 2142 2233  839 840 1243 2769  839 1242 1243 2769  2187 2258 2391 2393  1486 1492 1493 2139  462 2238 2258 2393  228 352 353 2002  2175 2226 2280 2283  2184 2294 2296 2424  462 2238 2392 2393  2215 2238 2258 2390  264 276 1023 2225  1019 1028 2223 2281  2163 2260 2261 2263  494 1102 2431 2436  2164 2261 2263 2264  1765 1772 1782 2316  948 949 955 2103  949 950 2850 2853  388 389 1766 2316  1106 2423 2433 2437  839 1463 2767 2769  1022 1485 2225 2227  75 76 1577 1713  2143 2161 2163 2164  2235 2312 2313 2314  480 1080 2411 2412  839 1462 1463 2769  76 1577 1578 2706  2194 2256 2330 2334  76 1577 1713 2706  2184 2242 2424 2425  394 2329 2331 2386  1602 1603 1690 2252  445 1781 1782 2372  2163 2164 2261 2263  379 383 2009 2010  2163 2164 2194 2261  1214 2680 2685 2796  2346 2351 2441 2447  132 1442 1793 2371  2176 2182 2214 2271  2184 2250 2422 2425  1866 1867 1952 2695  139 140 1449 1849  51 474 475 2406  1786 2186 2394 2395  2176 2181 2214 2271  1791 1804 2354 2402  98 1599 1600 1914  98 99 1600 1914  1448 1449 1513 2654  1786 1935 1968 2271  1754 1786 1935 2271  1786 1968 2271 2394  419 441 442 2017  1843 1961 2536 2537  1786 2186 2271 2394  946 1404 1410 2851  451 452 1061 2377  1061 1064 1346 2384  111 1405 1411 1717  943 2747 2851 2852  217 218 996 2159  449 450 1060 2374  1342 2276 2280 2288  308 309 323 1993  355 367 1041 2276  233 347 1999 2000  355 1024 1041 2276  779 1574 1869 2713  930 1290 1291 2833  355 1024 2276 2278  1038 1342 2276 2288  1595 1682 1683 2354  2325 2471 2538 2543  442 443 2307 2357  1024 1041 1342 2276  1024 1342 2276 2280  2429 2431 2432 2570  496 1104 1105 2439  1439 1440 1504 2307  176 497 1105 2437  176 177 497 2437  1106 1350 2423 2433  482 1083 2414 2415  1033 1083 1085 2417  485 497 1106 2437  1478 1502 2249 2297  360 1030 1031 2282  508 509 2442 2461  2680 2685 2796 2797  2297 2432 2435 2436  507 508 1801 2459  2449 2455 2456 2457  450 451 1060 2374  267 1008 1011 2210  549 1592 1593 2474  154 449 450 1533  184 265 1331 2207  2244 2323 2327 2480  2521 2657 2708 2721  2247 2248 2432 2434  87 88 609 1589  607 608 2035 2535  772 773 1866 2695  608 609 2035 2535  175 1358 1478 2438  1504 2297 2309 2577  264 1007 2207 2208  1937 1938 1943 2301  773 828 829 2084  175 1477 2438 2577  540 2028 2029 2118  1787 2395 2397 2398  1788 1789 1940 2396  1787 2186 2395 2397  1477 1503 1504 2297  550 551 1107 2486  264 265 1007 2207  1647 2488 2489 2492  1557 1647 2488 2492  270 1013 2212 2216  769 1579 2622 2706  2175 2180 2218 2277  47 1109 1623 2488  501 502 2446 2447  2298 2303 2482 2484  773 828 2083 2084  1661 2713 2791 2839  1527 1536 1540 2157  1428 1492 1493 2133  772 827 828 2083  184 1331 1487 2207  2361 2458 2459 2461  2050 2051 2121 2502  584 585 594 2530  772 773 828 2083  582 583 2502 2528  90 1591 1715 1813  1048 1049 1088 2419  2300 2311 2312 2313  816 817 2646 2753  2047 2048 2121 2530  454 1065 1392 2378  2004 2010 2115 2311  817 2646 2756 2759  2348 2363 2367 2536  677 678 2545 2598  1827 1843 1961 2537  58 1071 1628 2388  219 998 999 2162  676 1839 2546 2605  2347 2364 2452 2606  219 220 999 2162  557 1113 2496 2497  381 393 2004 2311  817 818 2756 2759  1142 1351 1355 2570  2302 2319 2320 2566  381 393 2300 2311  1117 1351 1352 2498  118 227 1428 1720  1336 2494 2497 2501  1867 2695 2698 2709  230 231 350 2001  70 868 1571 1572  650 1151 1153 2574  228 229 2177 2178  802 817 818 2077  170 171 689 1473  441 442 2017 2357  661 1165 2588 2591  1360 1364 1391 2638  1223 1225 2722 2723  763 2449 2456 2604  2585 2586 2587 2588  442 2011 2017 2357  2443 2588 2591 2737  443 444 2307 2357  2135 2140 2144 2383  1546 1612 1635 2841  673 674 2056 2598  1836 1861 2603 2703  2317 2324 2364 2560  223 1003 1006 2152  1171 1173 1189 2595  1360 1368 2591 2612  2149 2150 2157 2383  1180 2611 2613 2640  240 241 2135 2202  240 241 1729 2202  277 289 1741 2202  76 1713 1863 2706  584 1821 2465 2529  393 2004 2005 2311  806 814 815 2078  238 250 1530 2205  805 806 815 2078  515 516 542 2027  430 468 469 2023  583 1819 2527 2529  238 239 1535 2149  1624 1649 1704 2403  238 1976 1982 2110  1558 1624 1704 2407  1531 1536 1630 2205  706 1192 1204 2629  1232 1235 1333 2729  677 1798 1840 2606  1437 1763 2314 2315  656 1159 1323 2582  2346 2371 2441 2446  740 741 2069 2658  2361 2443 2451 2591  1224 1333 2724 2739  1514 1515 2506 2578  501 502 2442 2447  2347 2364 2448 2452  1781 1782 2315 2372  785 1224 1226 2724  784 785 1224 2722  836 848 1254 2766  2535 2538 2539 2542  2325 2538 2539 2542  273 1018 1019 2219  271 1014 1017 2212  759 760 1855 2697  583 1819 1820 2529  2460 2502 2511 2531  1169 2590 2594 2596  559 560 1118 2500  772 773 2695 2708  580 581 598 2050  2513 2515 2695 2698  210 211 285 1975  758 770 2694 2696  1866 1952 1953 2655  210 285 286 1975  1016 1051 1384 2221  141 142 1451 1922  775 776 831 2085  53 54 1320 1626  77 78 769 1579  2440 2464 2465 2593  2348 2367 2471 2538  1466 1467 1513 2504  2515 2518 2731 2734  16 1425 1921 2233  140 1449 1849 2661  1224 1238 1333 2739  1522 1532 1538 2151  806 807 814 2079  1522 1532 2151 2233  818 819 2756 2758  804 816 817 2077  2078 2079 2125 2753  817 1453 2646 2756  1722 2190 2195 2266  2325 2367 2472 2538  2325 2367 2471 2538  2318 2325 2326 2367  2237 2395 2398 2399  1576 1664 2710 2712  719 720 732 2067  388 389 2306 2316  2138 2147 2191 2197  162 990 1464 2692  1221 1465 2689 2692  2522 2683 2685 2687  393 2300 2311 2328  1661 1662 2713 2839  767 2693 2702 2705  1243 1244 1370 2772  848 1253 1254 2780  1253 1254 1372 2780  230 231 2178 2179  306 326 327 1991  862 863 1885 2788  230 350 351 2001  850 862 874 2088  864 2093 2094 2789  2236 2240 2244 2327  325 1748 2259 2260  1748 2198 2259 2260  318 319 2254 2256  314 318 1995 1996  314 318 319 1995  317 318 1996 2254  1262 1373 2803 2807  2523 2621 2711 2712  884 1263 1265 2806  318 1995 1996 2254  27 28 881 1613  1293 1294 1612 2841  318 319 1995 2254  1612 1695 2838 2839  896 2095 2096 2810  892 893 2810 2812  2175 2181 2269 2270  329 1984 1985 2267  329 341 1984 2267  330 331 2239 2269  2267 2269 2270 2275  15 903 904 2816  15 1273 1401 2816  341 2189 2270 2275  340 341 1984 2267  189 1458 1489 2812  2075 2076 2125 2753  818 819 2753 2759  559 1118 2429 2500  2235 2242 2300 2312  894 2095 2101 2810  291 292 340 1984  292 340 341 1984  784 796 1238 2739  229 230 2178 2179  1047 2333 2334 2336  1573 1661 1662 2713  935 1545 2840 2846  1308 2858 2860 2861  388 1765 1766 2316  1634 2762 2844 2864  363 1034 2286 2289  362 363 1034 2289  1499 2184 2235 2250  377 385 386 2008  1566 1655 2853 2854  940 1902 2717 2792  399 400 1046 2336  2176 2220 2283 2284  940 952 2105 2850  384 385 2311 2313  500 501 2441 2442  748 749 1209 2674  1817 1846 1950 2466  444 445 2012 2357  2236 2291 2294 2424  1312 1315 1378 2867  20 1325 1544 2864  2236 2291 2292 2427  22 1545 1610 2846  406 1055 1057 2343  742 743 2068 2658  406 1057 2343 2345  2242 2248 2285 2500  1767 1768 1938 2321  385 2008 2009 2311  384 385 2009 2311  2440 2463 2594 2596  1727 2197 2199 2200  381 382 2300 2311  269 270 1013 2212  2621 2712 2713 2802  2161 2164 2344 2345  180 1482 2276 2278  1038 1041 1342 2276  366 1038 2276 2295  2180 2185 2218 2294  1548 1613 1631 2801  379 383 384 2009  2218 2277 2280 2288  874 2783 2788 2790  1114 1139 2495 2496  2236 2287 2291 2292  472 484 1087 2421  378 384 385 2009  1048 1049 2337 2419  1705 2215 2403 2405  269 1013 2212 2213  236 1727 2197 2200  2146 2150 2379 2383  2215 2335 2336 2337  1065 1339 1392 2165  998 999 2162 2379  453 454 1065 2378  771 783 2082 2708  1024 2276 2278 2280  996 1062 2160 2380  395 1043 1044 2329  1044 1344 2329 2332  863 2785 2788 2790  394 395 1043 2329  364 1037 2291 2293  1120 1383 2427 2499  225 342 354 2003  1386 2291 2424 2427  365 366 1038 2295  2242 2424 2426 2427  335 2180 2185 2268  2000 2001 2112 2178  643 1142 2568 2570  1044 1045 1344 2332  628 2548 2563 2564  45 1556 1622 2490  1622 1647 1702 2490  2245 2486 2489 2501  395 396 2329 2331  1557 1647 1703 2488  762 2449 2456 2699  1079 1080 1393 2410  550 1108 2486 2501  2186 2214 2237 2416  2161 2343 2344 2345  476 477 1076 2409  2363 2623 2626 2629  672 673 2547 2601  1146 1354 1361 2573  2362 2451 2546 2605  2350 2611 2612 2640  2350 2609 2611 2612  2317 2562 2571 2573  2350 2607 2609 2610  2349 2360 2446 2617  2346 2349 2446 2617  2650 2707 2785 2790  439 440 2016 2357  2302 2305 2318 2320  1125 2548 2550 2563  653 2438 2567 2577  1501 2235 2250 2434  1435 1499 2183 2235  439 2015 2016 2357  2443 2453 2518 2588  1165 1234 1236 2737  1499 1500 2235 2250  1427 1738 2142 2173  660 1164 1165 2588  2349 2572 2614 2617  1858 1947 1951 2449  862 874 2788 2790  679 2545 2597 2599  1641 2526 2725 2727  1178 1199 1200 2640  539 1910 2354 2469  172 1150 1152 1475  164 746 1466 2673  225 237 1728 2200  2304 2309 2356 2358  94 95 1596 1792  95 96 459 1597  470 1791 1792 2401  438 439 2015 2357  2183 2184 2235 2242  2304 2305 2309 2356  436 437 1775 2368  2297 2305 2309 2356  1256 2682 2685 2796  762 1857 1858 2449  1213 1216 1365 2684  757 1222 2670 2689  1776 1957 2366 2368  1207 1210 1365 2672  2504 2675 2678 2679  2520 2651 2782 2831  2518 2729 2731 2734  929 930 1290 2833  439 440 2352 2357  2514 2680 2681 2797  2676 2677 2678 2681  836 1240 1252 2768  225 342 343 1997  2647 2663 2691 2766  2297 2309 2355 2356  845 846 1249 2779  1253 2780 2781 2782  2578 2687 2690 2691  1210 2675 2677 2679  875 1256 1270 2796  639 640 1138 2563  887 1269 1270 2809  884 885 1265 2806  1206 1222 1365 2688  885 1266 2734 2808  2743 2747 2757 2815  281 1737 2173 2232  937 938 1300 2849  2304 2356 2358 2359  333 334 1756 2272  1305 2821 2855 2857  990 1241 2692 2766  881 882 1262 2804  2835 2842 2845 2847  933 1546 1611 2840  2652 2707 2716 2791  928 929 1289 2836  25 1294 1546 1612  23 24 934 1611  2716 2840 2842 2847  425 460 461 2021  2842 2845 2846 2847  2350 2361 2451 2458  762 763 2456 2693  331 332 2267 2269  20 973 1325 2864  2350 2362 2451 2640  974 975 1311 2866  2350 2451 2612 2640  2350 2362 2451 2605  2744 2823 2824 2825  2350 2451 2458 2605  2346 2369 2446 2617  1158 2579 2581 2583  99 321 1600 1914  1484 1485 1494 2227  1600 1914 2257 2258  1036 1343 2286 2291  1386 2291 2292 2427  2308 2317 2369 2617  1031 1385 2284 2420  494 1101 1102 2431  638 1134 2559 2562  493 494 1101 2430  2360 2369 2446 2617  1146 1147 1361 2573  2317 2360 2369 2617  99 320 321 1601  2503 2504 2514 2678  1778 2366 2369 2446  1778 1795 2366 2446  2663 2768 2774 2782  321 1600 1914 2257  506 564 565 2040  505 563 564 2039  1526 1533 2375 2376  1533 1540 2374 2376  1526 1533 1540 2376  910 1278 2823 2827  1278 1281 1374 2827  718 2558 2623 2629  1180 1200 2639 2640  2149 2150 2201 2376  1072 1088 2335 2404  1175 1368 2592 2609  906 1276 1321 2820  2747 2763 2825 2856  1281 1284 1374 2827  2763 2825 2856 2871  516 517 541 2028  2130 2133 2173 2232  946 947 2102 2850  108 947 1403 1410  2135 2149 2150 2201  19 20 973 1609  1657 2792 2794 2844  762 1857 2449 2699  942 2717 2720 2747  226 227 1720 2177  227 1428 1720 2177  1941 2240 2400 2478  2176 2190 2195 2266  301 336 337 1988  1807 2323 2327 2480  329 1752 1760 2270  761 2061 2062 2693  500 501 1794 2441  541 2478 2479 2480  541 542 2479 2480  1777 1795 2360 2366  132 1441 1442 2371  761 762 2061 2693  1442 1793 2371 2441  1806 1958 2240 2480  1428 1720 2173 2177  2649 2744 2775 2777  1541 2149 2201 2376  456 457 1067 2387  667 1835 1843 2597  1068 2385 2386 2387  1244 1246 1370 2772  1464 2647 2692 2767  1068 2382 2385 2387  529 607 2034 2035  752 753 1216 2684  752 753 1215 2685  1251 1286 2779 2830  990 1220 1221 2692  528 606 607 2034  650 1152 1475 2574  173 650 1152 1475  1631 1662 1663 2802  2652 2713 2802 2839  1795 2360 2366 2446  537 1593 2469 2474  184 264 1486 2207  537 538 2469 2476  1427 1428 1492 2133  264 1485 1486 2208  2298 2303 2319 2322  264 1486 2207 2208  184 264 265 2207  1068 1069 2386 2387  124 125 1434 2274  1791 1804 1910 2354  1593 1681 2469 2474  1482 1497 1498 2277  456 1068 2382 2387  456 1068 1069 2387  1445 1718 1824 2468  227 228 1428 2177  139 1449 1849 2654  1442 1443 1507 2441  971 972 2861 2863  134 498 510 2467  1519 2662 2746 2771  1461 1518 1519 2770  2649 2662 2749 2760  1717 1895 1896 2743  1575 1662 1663 2713  1537 1541 2149 2157  1529 1541 1542 2201  193 194 1923 2201  549 2118 2476 2483  2136 2137 2138 2139  2147 2161 2213 2216  549 2030 2118 2476  287 288 1528 2151  1425 1426 1490 2233  1690 1691 1706 2330  1641 2526 2723 2725  1582 1670 2547 2703  751 752 2684 2685  18 971 972 2863  18 19 972 1543  456 457 1069 2387  457 1069 1071 2387  2650 2652 2707 2716  1527 2157 2373 2374  559 1117 1118 2429  457 1071 2387 2388  240 241 2149 2206  2238 2392 2395 2399  2344 2383 2385 2386  930 2833 2836 2837  2518 2588 2589 2733  2186 2394 2395 2416  2652 2713 2791 2839  2513 2523 2621 2711  624 671 2057 2058  1322 1619 2554 2625  667 679 1843 2597  985 1128 1322 2625  2445 2451 2636 2637  142 1878 1922 2644  40 985 1322 1619  2237 2395 2397 2398  1451 1515 1516 2644  97 460 1598 2390  1653 1691 1692 2145  1423 1522 2132 2155  103 1604 1605 1716  1605 1692 1716 2144  47 1557 1623 2488  246 255 256 1978  582 583 1819 2527  581 597 598 2050  2186 2237 2395 2416  1552 1618 1643 2632  37 38 709 1618  1536 1537 2157 2205  2145 2387 2388 2389  155 448 449 1527  1536 1630 2157 2205  2453 2508 2509 2518  582 1819 2524 2527  391 392 2306 2311  197 1527 1536 2157  448 1059 2373 2374  740 1450 1451 2665  2648 2658 2664 2665  1073 1087 1347 2408  1073 1087 2408 2421  1699 2630 2631 2723  1075 2404 2406 2408  1075 1076 2406 2408  1487 1491 1492 2130  770 2622 2694 2696  693 765 2060 2066  240 2135 2201 2202  1705 2403 2405 2406  288 289 1740 2234  470 471 1792 2401  1320 1626 2333 2336  72 73 1574 1869  400 1047 2336 2337  73 779 1574 1869  73 779 1574 1575  780 2713 2714 2719  734 735 2648 2659  604 605 2471 2537  286 287 2151 2228  2326 2552 2553 2555  604 605 1827 2537  2148 2151 2228 2229  1586 1673 1674 2540  287 288 2151 2228  1689 2256 2330 2334  603 1825 1826 2534  667 679 2597 2599  667 679 2598 2599  96 97 460 1598  679 2536 2545 2597  1259 1290 1375 2833  23 934 935 2840  740 741 1922 2665  73 778 779 1575  93 94 1595 1910  84 85 1586 1714  198 1531 1536 1630  1653 1692 1693 2145  469 470 2023 2353  54 55 398 1561  2245 2403 2407 2409  2241 2245 2403 2409  84 1585 1586 1714  2098 2099 2127 2810  83 84 669 1585  112 890 1405 1896  203 204 279 1971  84 669 1585 1714  2308 2346 2369 2617  229 230 2001 2178  282 283 2142 2228  2245 2407 2409 2410  207 288 289 1973  1083 2414 2415 2417  1604 1716 1743 2253  998 999 1065 2379  106 1607 1608 1917  1528 1534 1539 2151  1603 1604 1743 2253  336 1758 2273 2274  106 1608 1917 1924  334 335 2185 2268  1761 1771 2273 2300  1435 1436 1500 2313  2183 2273 2300 2310  335 1758 2251 2273  659 1162 1164 2589  141 739 740 1450  542 1806 1807 2480  658 659 1162 2587  547 2303 2484 2485  1162 1366 2589 2676  5 106 1608 1924  1162 1211 1366 2676  2445 2599 2600 2628  669 670 2058 2598  192 288 1534 1740  502 503 1796 2360  625 669 670 2058  625 670 671 2058  1805 1806 1941 2478  517 540 541 2028  742 2648 2658 2665  1535 1537 1541 2149  137 138 577 1447  2318 2326 2557 2561  286 287 1974 2228  670 671 2058 2598  1174 1176 2609 2610  206 207 289 1973  1007 1023 1340 2208  1961 2324 2536 2537  668 1714 1835 2540  2462 2466 2505 2586  1174 1353 2608 2610  741 742 2665 2668  2545 2546 2598 2601  266 267 1009 2209  674 2546 2601 2603  1524 1525 1538 2156  1817 1846 2466 2519  680 692 1190 2608  2443 2453 2463 2586  139 1448 1449 2654  264 1007 1023 2208  140 738 1849 2661  1820 1858 1947 2449  583 2527 2528 2529  2455 2457 2517 2518  2362 2636 2640 2642  763 1859 1951 2604  692 1189 1190 2608  738 739 2070 2658  1712 1869 1888 2791  2218 2282 2289 2417  873 2783 2793 2795  729 735 736 2072  2131 2151 2229 2234  728 729 736 2072  1691 2252 2253 2330  1520 1521 2745 2750  2667 2744 2746 2757  1573 1661 2713 2791  2218 2237 2287 2417  489 2424 2425 2426  245 246 1979 2206  1874 1885 2742 2786  478 479 2409 2410  117 118 1427 1720  942 1903 2717 2720  1423 1424 2153 2155  117 1427 1720 1738  942 1903 1904 2720  318 1603 1743 2253  2134 2138 2143 2200  1199 1364 1382 2640  2164 2253 2255 2330  1727 1926 2199 2200  152 1329 1526 2160  2163 2182 2188 2338  714 1199 1364 2640  117 1738 1739 2142  232 233 348 2000  1722 1723 2195 2266  1834 2359 2533 2534  436 437 2358 2368  433 434 2013 2357  1250 1286 1303 2832  1681 2474 2489 2491  117 1427 1738 2142  664 665 2595 2596  2455 2697 2699 2701  592 593 2048 2530  128 1763 1764 2315  1839 1942 1949 2444  2365 2459 2464 2468  2242 2424 2425 2426  128 1438 1781 2315  486 487 1091 2423  2303 2470 2474 2476  438 2352 2366 2368  325 2259 2260 2261  44 986 1621 2493  2460 2462 2510 2519  234 235 1999 2178  223 1004 1005 2171  806 814 2078 2079  2130 2142 2173 2232  223 1003 2152 2171  1852 1853 1965 2669  281 282 2142 2228  2503 2504 2514 2648  734 735 2648 2658  487 488 2422 2425  240 241 1981 2206  747 2672 2673 2675  487 488 1091 2425  196 250 1530 1531  1101 1351 2429 2431  307 308 325 1992  164 1466 1467 2673  2163 2197 2260 2263  98 1599 1911 1914  747 748 1207 2675  278 2148 2228 2229  1579 1667 2622 2705  1493 2133 2136 2177  284 1969 1975 2228  236 237 1998 2178  435 2013 2014 2357  1773 1939 2301 2359  435 436 1774 2359  286 1974 1975 2228  412 434 435 2013  285 286 1975 2228  540 541 2028 2483  986 1124 2495 2548  459 460 2353 2390  1596 1792 2354 2401  1580 1667 2704 2705  516 542 2027 2028  2025 2031 2118 2483  439 440 2352 2369  2146 2165 2166 2170  609 2035 2036 2535  1522 1524 1538 2155  764 2456 2693 2702  2241 2403 2408 2409  694 763 764 2060  610 611 2473 2542  586 1822 1823 2464  587 2047 2502 2530  693 764 765 2060  702 769 2064 2065  758 759 2063 2693  2363 2545 2597 2599  626 627 668 2059  2515 2695 2698 2709  2063 2064 2122 2693  2057 2058 2120 2598  671 2057 2058 2598  2367 2556 2557 2558  744 2067 2068 2658  140 738 739 1450  140 141 739 1450  141 740 1451 1922  2503 2507 2514 2648  701 702 769 2064  804 805 816 2078  1454 2662 2756 2758  1101 1142 1351 2431  2134 2138 2141 2232  857 867 868 2092  2645 2650 2718 2788  660 661 1165 2588  2715 2718 2783 2790  1351 2429 2431 2570  1142 1351 2431 2570  135 1444 1445 2468  949 950 956 2103  950 951 2761 2850  778 779 2086 2126  947 948 1403 2853  791 792 1231 2733  1445 1824 2468 2532  1193 1194 2627 2633  2361 2443 2451 2465  316 317 1996 2254  869 870 2091 2789  2650 2715 2716 2835  1969 1975 2109 2228  858 866 2092 2093  853 871 872 2090  869 1570 1571 2784  221 1000 1003 2167  2131 2132 2167 2168  235 236 1726 2197  1128 1130 1191 2556  272 2217 2219 2221  2130 2131 2166 2167  1054 1341 2341 2343  712 713 1195 2635  455 456 1068 2382  246 247 1605 2206  1231 1267 1369 2735  1978 1979 2110 2206  717 1201 1204 2629  187 212 213 1424  791 1230 1231 2734  225 1728 2200 2232  2129 2142 2148 2233  2443 2463 2590 2594  1001 1002 1389 2170  714 1197 1364 2638  1423 2129 2132 2153  145 1454 1455 2758  2130 2169 2171 2172  1001 2162 2167 2170  818 819 1880 2758  818 1879 1880 2758  717 1201 2629 2639  1008 1011 1340 2210  1363 2630 2634 2635  145 1454 1879 2758  813 814 2079 2753  812 2752 2754 2755  363 1035 2288 2290  1945 1966 2182 2198  318 2252 2253 2255  1128 1191 2556 2625  231 1721 1722 2190  2190 2191 2193 2195  812 1876 2754 2755  420 432 466 2024  477 478 1078 2409  2180 2183 2185 2273  178 486 1090 2422  465 466 2398 2399  358 359 1028 2223  759 760 2620 2700  1693 2144 2149 2206  550 1107 1123 2486  812 813 2752 2753  813 814 2752 2753  328 1990 1991 2254  100 101 319 1602  78 79 768 1580  327 2254 2261 2264  78 768 1579 1580  189 1407 1458 2812  1010 2169 2170 2211  237 1727 1728 2200  2440 2465 2528 2531  45 1319 1556 2490  1047 2332 2334 2340  1018 2219 2221 2281  2440 2443 2465 2528  1406 1407 1920 2812  1538 2132 2155 2156  2346 2349 2351 2614  286 1532 2151 2233  2520 2666 2668 2691  151 216 1324 1525  278 279 2148 2228  116 283 1426 1739  1971 1972 2109 2228  1407 1458 1920 2812  288 289 2229 2234  2346 2349 2351 2447  467 2398 2399 2400  3 114 1407 1920  392 393 2311 2328  79 767 768 1580  2012 2013 2114 2357  501 1794 2441 2446  410 411 433 2013  1634 1656 1657 2762  1627 1652 2330 2332  2621 2708 2713 2719  2134 2140 2146 2166  1657 1658 2794 2844  167 654 666 2596  866 867 1712 2791  586 587 1823 2532  1603 1604 1691 2253  320 321 2254 2256  321 2254 2256 2257  867 1712 1889 2791  2715 2718 2748 2795  864 1886 1887 2785  323 324 1746 2187  492 2428 2429 2430  2466 2505 2509 2586  2646 2662 2663 2759  2194 2334 2337 2338  2175 2218 2277 2280  298 333 334 1987  1634 1637 1657 2844  2645 2663 2752 2759  1984 1985 2111 2267  145 1879 1880 2758  814 815 2646 2753  2645 2752 2759 2760  1857 2449 2699 2701  928 1286 1288 2830  845 1248 1250 2777  1299 1302 1379 2848  382 383 2311 2313  476 1624 2403 2407  336 337 2180 2274  72 1573 1574 1869  49 50 1327 1624  1348 2337 2342 2419  359 1028 1362 2281  1510 2440 2463 2596  194 1529 1535 2201  488 1091 1094 2425  194 195 239 1535  684 685 1181 2615  498 499 570 2043  1034 2286 2289 2418  684 685 2614 2615  464 465 2392 2395  2247 2249 2432 2434  2646 2663 2752 2759  194 239 1535 2201  366 367 1040 2295  1869 2713 2714 2791  1478 2249 2297 2438  386 387 1764 2315  70 868 869 1571  685 1181 1183 2615  868 869 1571 2784  409 410 445 2012  674 2546 2598 2601  865 1887 1888 2714  504 505 2039 2442  193 194 1529 2201  2440 2460 2511 2531  673 674 2598 2601  1809 1938 1943 2482  2175 2181 2218 2283  1778 1779 1794 2371  643 644 1143 2569  277 278 1734 2231  126 383 384 2313  674 675 2056 2598  889 890 922 2099  112 890 891 1412  111 112 1405 1896  385 386 2008 2311  70 868 1572 1889  2506 2578 2647 2691  890 891 2099 2810  389 390 2306 2311  48 987 1558 2487  391 392 1769 2323  112 890 1405 1412  987 1558 2407 2487  1938 1943 2301 2482  391 392 2005 2311  389 390 2006 2311  2194 2334 2337 2340  890 1405 1412 2743  476 1559 1624 2403  1013 1054 1341 2341  2194 2329 2340 2345  483 484 1086 2421  1085 1086 1385 2420  944 1905 1906 2852  691 692 1189 2608  473 474 1074 2405  2408 2415 2416 2421  1779 1793 1794 2371  901 1271 1284 2817  2715 2748 2778 2795  1730 1734 1944 2231  1474 1475 1505 2576  132 1779 1793 2371  1690 1691 2252 2330  688 1185 1186 2619  172 173 1152 1475  1734 1735 1944 2230  215 216 1524 2156  151 216 1524 1525  1767 1938 2301 2321  2242 2427 2428 2500  548 549 1813 2470  2303 2476 2479 2483  1472 2351 2365 2607  522 549 2030 2031  216 217 1324 2156  2351 2607 2614 2618  1476 2308 2574 2577  1102 1140 1156 2435  653 1155 2567 2577  1764 1781 1782 2315  128 1437 1438 2315  396 2329 2331 2332  1652 2330 2332 2334  1061 2374 2377 2384  452 453 1063 2377  2145 2157 2383 2387  248 1977 1978 2206  903 904 1272 2816  2592 2593 2608 2609  911 912 1281 2827  1548 1631 2801 2804  637 638 1134 2559  1599 1686 1687 2390  541 1805 1806 2478  912 1284 2827 2829  80 1581 1582 2703  765 766 2693 2702  1861 1862 1925 2703  477 478 2407 2409  1598 1685 1686 2390  97 1598 1599 2390  1073 1075 2404 2408  2645 2651 2663 2775  2248 2285 2298 2500  767 1581 1862 2704  478 1077 2407 2410  479 1078 1081 2411  560 561 1119 2500  766 2602 2703 2704  1459 1460 1520 2746  2183 2251 2273 2300  216 1524 1525 2156  2513 2621 2708 2711  1087 2408 2415 2421  2506 2644 2668 2691  2561 2562 2565 2566  2242 2246 2285 2500  1080 1349 1393 2412  392 2306 2311 2328  150 151 216 1524  1104 1105 1358 2438  175 1477 1478 2438  1478 1502 1503 2297  68 69 870 1570  1104 1156 1358 2438  660 661 2585 2588  2520 2644 2668 2691  753 1216 2684 2687  2517 2518 2526 2729  1568 1656 2792 2854  1239 2634 2722 2740  437 438 1776 2368  69 869 1570 1571  2445 2599 2600 2601  150 215 216 1524  227 228 353 2002  2455 2508 2518 2698  2508 2513 2515 2698  227 228 2177 2178  2644 2646 2647 2752  773 774 829 2084  581 1817 1818 2524  769 770 2064 2693  580 581 2502 2516  1529 1535 1541 2201  1478 1479 1502 2249  1360 2591 2638 2738  664 1171 2592 2595  933 934 1611 2840  843 1244 1246 2772  2297 2438 2567 2577  2445 2600 2628 2631  843 844 1246 2774  934 1295 1296 2840  676 677 2545 2598  1322 1554 1619 2554  2349 2360 2447 2452  670 671 1584 2600  944 945 2850 2851  551 552 1109 2488  551 552 1110 2488  2299 2475 2478 2479  2214 2237 2416 2417  945 964 965 2108  945 946 2850 2851  2650 2652 2707 2785  641 1141 1155 2567  610 1590 1830 2473  611 1831 2473 2542  630 631 1555 2550  2298 2319 2322 2498  889 921 2098 2099  88 89 1590 1830  227 2002 2003 2178  609 610 2535 2542  43 986 1621 2549  555 1319 2490 2493  889 921 922 2099  2248 2429 2430 2432  36 983 1617 2630  1467 1512 1513 2505  227 228 2002 2178  1470 1510 2440 2596  238 239 1982 2110  1235 2729 2736 2738  981 1261 1291 2838  65 949 950 1566  986 1112 2493 2495  250 252 1976 1977  879 981 2801 2838  2440 2443 2463 2528  931 1292 2837 2841  763 1858 1951 2449  1635 1660 2716 2839  682 683 1178 2611  1646 2319 2493 2551  1950 2507 2525 2655  892 924 925 2100  1571 1572 1660 2791  681 1175 1177 2609  42 630 631 1555  2361 2365 2593 2607  664 2594 2595 2596  1170 1175 1368 2592  1413 1417 1418 2819  606 2348 2472 2538  527 605 2033 2034  680 681 1174 2609  238 251 1976 1982  85 1586 1587 1829  2364 2560 2615 2642  2763 2858 2859 2860  891 892 2100 2810  966 967 2857 2858  1809 1810 1943 2482  238 251 252 1976  1272 1274 2818 2822  2302 2318 2359 2533  1619 1644 2553 2625  1277 1305 1317 2857  44 986 1319 2493  1131 1354 2559 2560  2440 2593 2594 2595  1275 1278 1374 2822  42 43 630 1555  2326 2550 2551 2563  977 978 1316 2870  1335 2550 2555 2563  648 1185 2575 2576  630 1555 2549 2550  653 1154 2438 2577  862 2088 2094 2789  966 978 1315 2870  619 676 677 2055  643 2568 2569 2570  440 1778 1779 2369  966 978 1317 2870  172 1150 1474 1475  1148 1337 2571 2574  644 1145 2569 2571  1506 2308 2346 2576  2088 2094 2124 2789  654 655 1157 2581  979 1305 1307 2855  842 989 1245 2771  165 991 1467 2582  1245 1283 2771 2826  618 619 677 2055  1167 1236 1360 2591  2445 2629 2636 2642  157 158 1285 1460  764 2456 2602 2604  248 249 1977 2206  217 995 997 2158  993 1338 2152 2154  249 250 1977 2206  607 1587 1829 2472  212 993 2152 2154  2348 2363 2367 2624  249 250 2205 2206  1301 1380 2832 2849  1670 2450 2547 2631  82 671 1583 1584  669 1585 2540 2600  2630 2631 2634 2635  1376 1381 2824 2869  1800 1801 2459 2465  1277 1279 1317 2871  862 874 2088 2789  151 152 1324 1525  619 620 676 2055  1174 2608 2609 2610  152 1324 1525 2160  87 608 1588 1589  87 608 609 1589  686 1183 2614 2616  808 809 812 2080  248 249 2205 2206  1149 2572 2575 2616  1147 1183 1361 2572  86 607 608 1588  2506 2666 2668 2691  1579 1666 1667 2622  2832 2834 2835 2836  86 87 608 1588  1212 1269 1366 2681  706 718 2623 2629  706 718 1205 2623  1223 1363 2634 2723  269 270 1014 2212  38 708 709 1618  2138 2147 2212 2213  795 796 1238 2739  1838 2444 2546 2604  1471 2593 2595 2608  2504 2671 2672 2688  1256 2682 2796 2798  848 2766 2768 2782  1375 2653 2830 2833  801 802 819 2076  732 744 1853 2656  739 740 2658 2664  291 339 340 1983  739 740 1450 2664  1514 2503 2504 2664  135 1445 1718 2468  1470 1509 1510 2440  1815 1847 1848 2660  736 1847 1848 2660  735 1846 1847 2660  1470 1509 2440 2595  1021 1022 1332 2227  1221 1465 2670 2689  1072 1074 1328 2335  275 1021 1022 2227  1589 1676 2539 2541  1464 1465 1516 2692  2443 2449 2457 2465  1074 1328 2335 2405  1159 1208 1209 2674  453 1063 2377 2378  748 1207 1210 2675  1063 2378 2379 2380  748 749 1210 2675  1162 1359 1366 2589  745 1206 2670 2672  1159 2582 2584 2674  756 1219 1222 2689  753 2684 2685 2687  886 1267 2806 2809  837 990 1241 2766  2744 2823 2826 2827  911 1283 2826 2828  1033 1034 1083 2418  842 843 1245 2773  1643 2627 2628 2632  1820 2449 2529 2701  1033 1034 2289 2418  1841 2347 2452 2606  159 840 1462 2770  736 2071 2072 2658  759 2620 2694 2700  1837 1838 1859 2604  698 760 2062 2063  763 764 2060 2693  782 783 2082 2708  781 782 2708 2719  774 775 2126 2708  2585 2586 2588 2590  453 1063 1065 2378  774 829 830 2084  772 2657 2695 2708  2832 2835 2848 2849  872 873 2783 2793  1345 2343 2381 2385  704 767 2065 2066  1451 2506 2644 2665  2146 2343 2344 2385  781 782 1871 2719  738 739 2658 2664  2621 2799 2803 2807  771 783 2657 2708  405 406 1055 2343  1267 2734 2735 2809  1227 1229 2728 2729  1509 2365 2440 2468  1267 2734 2806 2809  2440 2464 2468 2532  454 2378 2381 2382  455 1066 1068 2382  865 1888 2707 2714  794 1234 1236 2737  454 455 1064 2382  2578 2671 2688 2689  1465 1514 1515 2578  1823 2464 2468 2532  658 2583 2584 2587  1177 1368 1382 2612  454 455 1066 2382  2521 2657 2669 2721  888 889 921 2098  892 2100 2101 2810  888 889 2098 2810  998 1063 1065 2379  2245 2407 2410 2486  968 969 1396 2859  673 2056 2057 2598  967 1305 1307 2855  1465 1515 2578 2692  2056 2057 2120 2598  281 282 1738 2142  1503 1504 2297 2307  621 622 673 2056  1107 1123 2410 2486  65 950 1566 1567  972 973 1609 2861  1315 2858 2867 2870  1360 1364 1382 2638  1077 1079 1107 2410  1251 1286 1288 2830  2445 2545 2546 2601  836 848 2766 2768  1254 2686 2690 2780  837 1240 1242 2768  836 837 1240 2768  1063 1065 2378 2379  1248 1371 1380 2777  158 1460 2771 2828  1463 1517 2647 2663  1063 2377 2378 2380  1841 1927 2347 2452  2718 2783 2787 2795  852 853 872 2090  1801 1822 1823 2464  927 928 1287 2834  2663 2767 2768 2769  1892 1902 1903 2795  872 873 1892 2793  282 1738 1739 2142  873 1893 2787 2795  23 935 1545 2840  592 2047 2048 2530  869 870 1570 2784  503 574 575 2045  2643 2650 2652 2785  539 2469 2475 2477  862 863 2789 2790  2453 2509 2586 2588  586 592 593 2530  1214 1256 1270 2796  1215 1256 2682 2685  1288 2830 2833 2836  2512 2521 2669 2683  539 2354 2469 2477  1256 1258 2682 2798  83 669 670 1585  1192 1193 1334 2629  2513 2695 2708 2711  1263 1265 2806 2807  401 1048 1049 2337  1262 1263 2804 2807  779 834 2086 2087  400 401 1047 2337  2652 2800 2803 2838  2374 2375 2376 2377  499 570 571 2043  293 329 341 1984  1046 1048 2335 2336  292 293 341 1984  892 2810 2811 2812  912 1285 2828 2829  585 586 593 2530  2305 2320 2429 2570  799 821 822 2075  2248 2298 2305 2429  937 1298 2845 2849  1504 2297 2307 2309  901 902 1271 2817  1895 1901 1905 2747  2248 2305 2429 2432  1165 1236 2591 2737  2748 2777 2824 2825  2744 2823 2824 2826  46 47 553 1557  157 901 913 2829  293 294 329 1985  912 1281 1284 2827  910 911 1281 2827  929 1288 1290 2833  1259 1261 1290 2833  976 977 1314 2868  1263 1265 1373 2807  1885 2742 2786 2788  2670 2671 2672 2688  628 1124 1139 2495  2715 2783 2784 2790  1466 2504 2671 2672  2520 2643 2683 2831  2653 2716 2833 2836  293 329 1984 1985  1110 1111 1336 2494  846 847 1251 2779  1247 2773 2776 2826  605 606 2034 2535  1108 1110 1336 2501  67 1568 1711 1908  1466 2670 2671 2672  1711 1908 1909 2792  41 631 632 1620  1610 2843 2844 2865  2034 2035 2116 2535  2033 2034 2116 2535  2245 2299 2477 2489  2717 2761 2762 2792  1308 1378 2858 2861  1310 2861 2864 2867  1378 2858 2861 2867  947 2850 2851 2853  2299 2475 2477 2489  971 1308 1309 2861  1147 1149 1183 2572  1493 2133 2136 2139  634 635 1129 2555  2469 2475 2477 2489  483 484 1087 2421  153 1329 1526 2375  303 304 316 1990  304 316 328 1990  1141 1155 1356 2567  1253 2779 2781 2782  304 328 1990 1991  241 242 2149 2206  1556 1621 1646 2493  304 305 328 1991  108 109 946 1410  2305 2309 2568 2569  404 1052 2339 2341  1688 1689 2256 2334  1682 2245 2354 2477  652 653 1155 2577  553 554 1111 2492  1940 2240 2272 2396  230 1721 1916 2179  272 273 1017 2219  651 652 1153 2577  212 213 993 2154  224 1005 1488 2171  175 1154 2438 2577  611 612 1831 2542  16 1423 1522 2233  275 1022 2225 2227  612 2484 2542 2543  936 1297 1298 2845  1565 1566 1655 2853  612 1831 1832 2484  326 327 2261 2263  940 952 959 2105  468 2353 2399 2400  553 1110 1111 2492  1662 1663 2713 2802  1176 1179 1353 2610  46 553 1557 2492  1174 1176 1353 2610  46 1557 1622 2492  27 880 881 1613  552 553 1110 2488  553 1557 2488 2492  1997 2003 2112 2178  1188 1353 2608 2618  2553 2554 2555 2556  500 571 572 2043  634 635 2555 2556  2318 2557 2561 2562  47 553 1557 2488  2299 2303 2479 2481  1077 1107 1109 2487  1471 1472 1508 2365  41 632 1554 1620  325 326 2254 2261  713 1195 1198 2636  639 640 2561 2565  1195 1334 2633 2636  1192 1204 1334 2629  1555 1620 1697 2552  1807 2323 2480 2481  326 327 2254 2261  52 53 1328 1560  1052 2339 2341 2342  325 326 1992 2254  1560 1650 1651 2334  326 1991 1992 2254  403 404 1052 2339  867 868 2092 2789  779 780 1869 2713  620 675 676 2055  326 327 1991 2254  531 609 610 2036  124 337 1433 2274  2317 2360 2366 2369  531 532 610 2036  504 505 563 2039  1161 1209 1211 2676  1593 1680 1681 2474  749 1209 1211 2676  755 1218 1220 2690  383 384 2311 2313  376 377 386 2008  755 756 1219 2689  478 1077 1079 2410  338 2180 2268 2275  120 1429 1430 2179  2175 2189 2270 2275  755 1219 2687 2689  124 337 1759 2274  754 755 1218 2690  1815 1848 1930 2654  755 756 1220 2689  1231 1233 1369 2735  1231 2733 2734 2735  124 337 338 1433  1077 1107 2486 2487  336 337 2180 2268  839 840 1462 2769  161 1463 1464 2767  337 338 2180 2268  612 1832 2484 2544  1647 1703 2488 2489  160 839 840 1462  1723 1752 1753 2266  1646 1702 2491 2493  1367 1375 1388 2781  1722 1723 1752 2266  662 663 1166 2590  232 233 1723 2195  1147 1361 2572 2573  359 360 1029 2282  982 1549 2732 2805  2130 2133 2139 2141  644 645 1145 2571  884 1264 2805 2808  1434 1435 2183 2310  789 1318 2728 2732  403 2337 2339 2342  211 284 285 1975  49 987 1327 1558  1494 2136 2137 2174  441 2016 2017 2357  1417 2818 2819 2820  490 2424 2426 2427  908 1278 2822 2823  1272 2816 2818 2822  415 416 438 2015  2181 2218 2237 2417  1399 1417 1418 2818  2276 2277 2293 2295  241 1729 1730 2202  2014 2015 2114 2357  907 2818 2820 2821  906 907 2818 2820  1286 2779 2830 2832  846 1250 1251 2779  1432 1496 1497 2275  1091 1094 1350 2425  1646 1679 2319 2491  191 192 287 1528  366 1038 1041 2276  249 252 253 1977  927 939 1303 2832  927 1286 1303 2832  22 935 1545 2846  240 261 262 1981  22 935 1297 2846  2319 2322 2493 2496  167 654 1469 2596  2319 2322 2491 2493  1646 2319 2491 2493  561 562 2499 2501  2164 2330 2345 2386  971 972 1309 2861  324 2187 2254 2261  746 1466 2672 2673  561 2499 2500 2501  1463 1518 2663 2770  420 466 2018 2024  969 970 1308 2860  969 1306 1308 2860  8 970 971 2863  316 328 2254 2264  462 1783 1784 2258  684 685 1179 2614  444 2011 2012 2357  472 484 1088 2421  472 1072 1088 2404  1308 2860 2861 2863  1154 1156 1358 2438  1319 1556 2490 2493  1646 2493 2549 2551  473 1073 1075 2404  45 554 1319 2490  6 187 1330 1424  17 1424 1523 2155  6 1330 1424 1523  6 17 1424 1523  2431 2432 2435 2568  499 500 1793 2441  636 637 1133 2559  637 1132 1135 2557  637 638 1135 2557  167 666 1173 2596  2343 2344 2345 2385  628 640 1139 2564  1721 1722 1760 2265  2318 2561 2562 2566  1390 2165 2343 2381  2146 2165 2213 2343  711 1195 2633 2635  1055 1341 1345 2343  1351 1352 2498 2565  1137 1352 1355 2565  585 593 594 2530  369 381 393 2004  736 737 2071 2658  383 2009 2010 2311  1893 1954 2787 2795  816 817 1453 2646  1173 1470 2595 2596  1223 1225 1363 2723  897 916 917 2096  983 1225 1363 2723  1363 2630 2634 2723  2091 2092 2124 2789  858 866 867 2092  983 1363 2630 2723  2750 2816 2817 2822  902 903 1272 2816  1469 1470 1510 2596  368 380 381 2010  1271 1284 1374 2817  509 510 1803 2467  1284 1374 2817 2827  2181 2214 2237 2417  380 381 382 2010  368 381 2004 2010  633 634 1129 2554  899 900 1900 2815  509 1802 1803 2468  359 1029 2279 2282  2718 2720 2748 2795  2662 2749 2756 2758  628 629 1125 2548  383 384 2009 2311  2281 2282 2283 2284  897 2667 2745 2764  1348 1384 1385 2420  10 968 1307 1396  10 11 1307 1396  153 154 450 1533  508 509 1802 2459  242 1980 1981 2206  11 979 1307 2855  10 969 1395 1396  10 968 969 1396  1423 1522 2129 2132  1528 1532 1539 2151  1414 2763 2859 2860  1407 1408 1419 2812  381 2004 2010 2311  1490 2129 2130 2142  370 392 393 2005  115 285 1921 2233  2367 2555 2556 2557  370 371 392 2005  2652 2800 2833 2838  880 981 1547 2801  27 880 981 1547  1554 1620 1645 2552  14 904 1399 1400  371 391 392 2005  709 1552 1618 2632  37 709 710 1552  1272 1374 2817 2822  1449 1450 1514 2661  50 475 476 1559  233 1724 2195 2198  51 475 1559 2406  51 52 474 1625  58 1563 1628 2388  96 459 460 1598  120 229 1429 2179  338 339 1983 2268  99 321 1600 1601  229 1429 2177 2179  855 856 869 2091  508 509 2459 2461  775 2126 2708 2712  2177 2178 2179 2193  131 1441 1780 2370  131 442 1780 2370  442 1440 2307 2370  131 442 1440 2370  626 668 669 2059  131 1440 1441 2370  1592 1593 1680 2474  94 1596 1792 2354  1790 1791 1804 2402  142 1452 1878 2644  105 248 1606 1607  231 2179 2190 2193  814 815 2644 2646  1451 1452 1516 2644  142 1451 1452 2644  284 285 2228 2233  199 283 284 1969  814 2644 2752 2755  1423 1490 2129 2153  142 1451 1922 2644  509 2459 2461 2467  1436 1500 1501 2313  338 339 2268 2275  561 562 1121 2499  230 231 1721 2179  841 842 2771 2772  1370 2768 2772 2774  842 2771 2772 2773  1243 1370 2769 2772  893 894 2101 2810  894 914 926 2101  663 1170 2591 2594  1473 1506 1507 2619  308 323 324 1993  840 841 2770 2772  159 840 841 2770  498 510 2442 2467  1461 1519 2770 2771  403 1052 2339 2342  498 2441 2442 2467  685 1179 1182 2614  690 1472 1473 2618  172 1150 1186 1474  171 689 1186 2619  170 690 1472 1473  233 347 348 2000  2346 2614 2616 2619  182 1022 1332 2227  1027 1332 2226 2227  1483 1496 1497 2175  1736 2134 2200 2232  180 181 356 2278  134 510 1803 2467  1483 1497 2175 2277  207 208 288 1973  498 1443 2441 2467  1021 1027 1332 2227  1025 1027 1332 2226  2220 2223 2281 2283  2136 2174 2190 2220  1495 1496 2175 2189  1727 1926 1932 2199  1990 1991 2113 2254  1506 2346 2576 2619  1474 1506 2576 2619  1441 1506 2308 2346  2276 2277 2278 2280  1012 1389 2211 2213  1522 1538 2132 2155  6 149 1330 1523  1442 1506 1507 2346  229 230 1916 2179  298 299 334 1987  1428 1429 1493 2177  1473 1474 1506 2619  1463 1464 1517 2647  1796 1927 1957 2448  236 1726 1727 2197  366 367 1041 2276  233 2191 2195 2198  1692 1693 2144 2145  498 499 2441 2442  248 253 254 1977  1459 1489 2750 2816  243 244 1980 2206  2344 2345 2385 2386  244 245 257 1979  1732 1933 1967 2204  2506 2644 2647 2691  225 237 2196 2200  133 498 499 2441  1532 1538 1539 2151  404 1015 1052 2341  156 188 1459 2816  1534 1542 2151 2234  2141 2209 2211 2212  1950 1952 2525 2655  274 1021 2224 2227  1534 1539 1542 2151  156 188 1273 2816  202 280 281 1970  337 338 1433 2180  488 1092 2422 2424  2504 2578 2671 2688  203 279 280 1971  2515 2709 2710 2711  1487 2139 2172 2207  1550 1640 2726 2728  2515 2523 2710 2711  339 340 1432 2275  122 340 1912 2189  340 341 2267 2275  33 34 787 1616  337 1988 1989 2268  1632 2523 2731 2805  1227 2726 2728 2729  55 397 1561 1627  316 317 1742 2253  56 396 1627 2331  414 437 2014 2015  2136 2177 2179 2193  396 397 1627 2332  56 1562 1627 2331  244 257 258 1979  1514 2504 2578 2671  1660 1661 2791 2839  2236 2242 2327 2328  1660 2716 2791 2839  868 1571 1572 2791  236 237 344 1998  1660 2716 2784 2791  305 306 327 1991  414 415 437 2015  246 247 1978 2206  302 337 338 1989  181 356 1025 2226  1430 1495 2174 2189  105 247 248 1606  1090 1092 2296 2422  2450 2631 2634 2723  125 126 1435 1762  125 1759 1762 2310  382 1761 2300 2310  94 1792 1910 2354  537 538 1594 2469  1434 2183 2274 2310  92 537 538 1594  2306 2312 2314 2434  2306 2311 2312 2314  2244 2246 2299 2478  92 537 1593 1594  1450 1451 2506 2665  1053 1056 1344 2340  246 1605 1716 2144  245 256 257 1979  403 1050 2337 2339  1135 1138 1335 2563  1046 1048 1072 2335  472 1073 1087 2421  472 473 1073 2404  246 1605 2144 2206  188 1459 1489 2816  477 1077 1327 2407  1693 1694 1707 2157  1693 1707 2145 2157  513 544 545 2026  1833 1939 1943 2544  34 786 787 2725  327 328 2254 2264  2440 2443 2593 2594  310 311 321 1994  411 433 434 2013  2523 2731 2805 2806  156 901 1459 2817  2147 2176 2188 2220  435 436 2014 2357  1974 1975 2109 2228  1561 1627 1652 2332  2011 2012 2114 2357  1653 1693 1707 2145  408 409 444 2012  402 1348 2337 2342  2515 2523 2731 2806  1076 2406 2408 2409  772 2655 2657 2695  220 1001 2162 2167  988 1562 2331 2389  2508 2515 2518 2734  775 1713 1928 2710  467 468 2024 2399  1448 1814 1930 2510  429 470 2022 2023  235 236 2196 2197  2403 2404 2405 2406  2508 2513 2797 2809  413 414 436 2014  2322 2494 2496 2497  414 436 437 2014  466 2018 2117 2392  2515 2734 2806 2809  273 1019 2219 2224  1638 1663 1664 2523  1093 1095 1386 2424  359 360 1030 2282  464 465 2018 2392  1052 2216 2341 2342  507 508 2040 2442  2176 2188 2220 2284  1648 1683 1704 2245  2026 2027 2118 2483  1623 1648 2487 2489  2513 2523 2799 2809  506 2454 2458 2461  635 636 1131 2557  1558 1648 1704 2487  1018 1362 1384 2281  520 537 538 2030  465 466 2018 2392  538 539 2469 2476  540 2028 2118 2483  1660 2716 2784 2842  1697 1701 2549 2551  1659 1660 2784 2842  1639 1660 2716 2842  1639 1659 1660 2842  1151 1153 1337 2574  465 466 2392 2399  533 611 612 2037  544 545 2303 2482  1684 1704 2245 2403  2513 2521 2656 2657  466 2117 2392 2399  1098 1118 2429 2500  986 2493 2495 2549  554 1111 2490 2492  2548 2549 2550 2551  45 554 1622 2490  138 1448 1814 1930  136 1445 1718 1824  505 2442 2447 2461  2506 2644 2665 2668  2048 2049 2121 2530  771 772 2657 2708  509 567 568 2041  93 1595 1910 2469  1447 1511 2510 2511  138 1447 1448 1814  1446 1447 1511 2511  2317 2324 2364 2448  1605 1692 1693 2144  577 2460 2510 2511  1848 1849 1930 2654  1605 1693 2144 2206  576 588 2046 2502  587 588 591 2047  1605 1606 1693 2206  588 2046 2047 2502  587 588 2047 2502  2046 2047 2121 2502  648 649 1151 2574  1817 1950 2466 2525  648 1149 1185 2575  1648 1704 2245 2487  605 606 2348 2538  1447 1448 1814 2510  611 2036 2037 2535  2174 2223 2226 2227  2513 2521 2621 2708  416 438 439 2015  385 1436 1437 2314  443 444 1439 2307  1443 2351 2365 2467  1019 1028 1362 2281  469 1790 1791 2402  1127 1335 2550 2555  469 1791 2401 2402  1441 1505 1506 2308  208 287 288 1973  639 640 2561 2563  130 443 444 1439  1007 1008 1340 2210  2136 2138 2147 2191  2138 2143 2197 2200  771 772 1865 2657  2583 2584 2586 2587  606 607 1829 2472  235 1725 1726 2197  2649 2651 2775 2777  665 1169 1172 2596  165 991 1323 2582  1169 1357 2581 2590  1007 1008 2207 2210  265 266 1008 2207  664 665 1169 2596  1240 1242 1370 2768  499 500 2441 2442  468 469 1790 2400  130 443 1439 1440  675 676 2055 2598  1516 1517 2644 2647  1927 1961 2347 2448  265 1007 1008 2207  684 2613 2614 2615  469 1790 2400 2402  469 2400 2401 2402  821 1882 1883 2765  698 759 760 2063  760 1855 1856 2697  469 2353 2400 2401  2650 2652 2653 2716  443 1439 1440 2307  385 1437 1763 2314  467 1789 2396 2400  2628 2631 2632 2633  1752 2239 2266 2270  783 2657 2708 2721  480 1080 1082 2412  306 326 1991 1992  432 466 467 2024  480 481 1082 2412  1886 2643 2785 2786  2455 2524 2697 2701  431 432 467 2024  1050 1053 1344 2340  775 830 2084 2085  480 481 1081 2411  481 1081 2411 2414  1758 1759 1761 2274  2513 2521 2657 2708  735 736 2648 2658  407 442 443 2011  731 733 734 2073  1819 1820 2529 2701  2521 2682 2683 2796  2578 2647 2691 2692  752 753 2684 2685  752 1214 1215 2685  1254 2690 2766 2780  745 746 1206 2672  2521 2522 2683 2797  749 1209 2674 2676  836 837 1241 2766  1440 1504 1505 2308  765 766 2602 2702  768 769 2065 2693  1577 1664 1665 2710  699 758 759 2063  299 300 335 1988  369 393 2004 2005  381 382 2010 2311  1819 2527 2529 2701  789 2728 2730 2732  2455 2508 2525 2698  2242 2323 2327 2328  689 1473 2618 2619  1436 1437 1501 2314  810 822 2074 2753  444 445 1781 2372  1438 1781 2315 2372  129 1438 1781 2372  129 444 1781 2372  858 859 866 2093  129 444 1439 2372  634 2554 2555 2556  2650 2785 2786 2788  2643 2652 2714 2785  129 1438 1439 2372  490 1095 1096 2427  2649 2749 2760 2765  896 915 916 2096  95 471 1596 1792  95 471 1596 1597  502 1795 1796 2360  771 2082 2083 2126  502 503 2360 2447  1437 1501 1502 2249  498 2042 2043 2442  93 1594 1595 2469  467 468 1789 2400  283 1425 1426 2233  158 1283 2771 2828  501 502 1795 2446  2744 2746 2771 2826  93 538 1594 2469  1801 1802 1823 2464  508 509 2041 2442  1450 2506 2664 2665  508 509 567 2041  502 1795 2360 2446  2089 2090 2124 2789  283 1426 2142 2233  2443 2453 2455 2529  862 863 2094 2789  1885 1886 1956 2786  1851 1876 1931 2754  1444 1508 1509 2365  2443 2449 2455 2529  578 1814 1815 2510  1814 1815 1930 2510  874 1893 1894 2787  421 464 2018 2019  873 874 2783 2787  2453 2527 2529 2701  1463 1464 2647 2767  421 422 464 2019  2508 2513 2655 2698  982 1228 1266 2808  420 421 465 2018  1775 1825 1959 2534  1825 1826 1959 2534  2036 2037 2116 2535  819 2749 2756 2759  1826 1959 2324 2534  1455 1456 1520 2814  1836 1837 1860 2603  1450 1451 1515 2506  1285 1460 2828 2829  1459 1460 2746 2829  604 1826 1827 2537  995 1338 2156 2158  1826 2324 2471 2537  814 1877 1878 2644  2324 2348 2471 2537  524 602 603 2032  524 525 603 2032  849 861 863 2094  524 602 2032 2038  2748 2778 2849 2869  524 536 602 2038  164 745 746 1466  2650 2707 2715 2716  1826 1827 1961 2537  845 1250 2777 2779  1652 1689 2330 2334  943 2747 2761 2851  1591 1678 1679 2473  465 466 1787 2398  1826 1961 2324 2537  2444 2449 2457 2465  2104 2105 2128 2850  952 958 959 2105  950 951 957 2104  283 1426 1739 2142  2457 2637 2638 2740  2518 2729 2736 2738  67 1568 1569 1711  762 763 1858 2449  763 1951 2449 2604  2520 2647 2663 2691  2520 2663 2691 2782  973 1310 2861 2864  1832 1833 1943 2544  1554 1645 1698 2553  2691 2766 2780 2782  535 613 2037 2038  866 1888 2707 2791  635 1130 2556 2558  1415 1420 1422 2856  2157 2374 2376 2377  2130 2131 2148 2166  1324 1525 2156 2160  16 190 1532 1921  2152 2153 2167 2171  1003 2152 2167 2168  217 996 1324 2160  1424 2152 2153 2154  534 535 613 2037  993 1006 1338 2152  221 222 1003 2167  223 224 1005 2171  1572 1573 1712 2791  819 1880 1881 2758  993 994 1338 2154  1880 1881 1897 2758  146 1455 1880 1897  206 289 1972 1973  2219 2220 2221 2281  359 1030 1362 2281  1029 1032 2280 2282  2137 2147 2212 2217  360 1029 1032 2282  482 483 1085 2415  1018 1019 1362 2281  896 897 2745 2814  488 1092 1093 2424  535 536 614 2038  535 613 614 2038  400 401 1048 2337  1568 1569 1711 2792  1711 1890 1891 2794  1626 2333 2334 2336  1483 1495 1496 2175  1056 2339 2340 2345  41 42 631 1620  940 941 1902 2717  941 942 1903 2717  872 1891 1892 2793  1027 2223 2226 2227  2068 2069 2123 2658  472 473 1072 2404  1679 2319 2470 2473  941 1902 1903 2717  1902 1903 2717 2795  1513 2503 2654 2661  1032 1035 1342 2288  481 1082 1083 2418  1034 1082 1083 2418  121 122 1431 2189  487 1091 2423 2425  1434 1435 1499 2183  487 1090 1092 2422  603 604 2471 2535  652 1153 1155 2577  1456 1913 2813 2814  895 896 1913 2813  147 895 1913 2813  545 546 2303 2483  121 122 1912 2189  1622 1647 2490 2492  1556 1622 1702 2490  555 1111 2490 2494  105 248 1607 1917  42 631 1555 1620  2324 2557 2559 2560  546 2303 2482 2484  631 632 1127 2552  630 631 1126 2550  604 605 2471 2535  628 1125 2548 2563  742 2068 2069 2658  1415 1416 1422 2856  629 1125 1126 2548  43 1555 1621 2549  1934 1968 2182 2391  526 604 605 2033  173 650 1475 1476  685 686 1182 2614  1145 1356 2569 2571  547 2303 2476 2483  2579 2580 2583 2584  2186 2214 2271 2394  1161 1162 2587 2676  2663 2766 2768 2782  546 547 2303 2483  1467 2504 2505 2673  665 1173 2595 2596  1717 1895 2743 2852  1895 1901 2747 2873  546 547 2303 2484  1170 1171 1190 2592  2466 2507 2508 2525  169 691 1189 1471  1946 1950 1952 2525  89 1590 1591 2473  1249 1252 1370 2768  1678 1679 2319 2473  1646 1678 1679 2319  690 691 1187 2618  670 671 2598 2600  870 871 1890 2794  629 630 986 2548  715 1198 1201 2636  710 711 2630 2632  844 845 1248 2774  2363 2367 2558 2624  713 1196 1197 2637  374 375 388 2007  1947 2444 2449 2465  375 387 388 2007  1201 1204 1334 2629  795 1236 1237 2738  388 389 2007 2311  630 986 2548 2549  990 1220 1241 2692  34 35 1225 1551  387 388 2007 2311  784 796 2739 2740  498 510 569 2042  2451 2636 2637 2640  374 388 389 2007  1617 1699 2630 2723  682 1177 1178 2611  1123 2410 2499 2501  1820 1821 1947 2529  1123 1393 2410 2499  463 464 1785 2393  2662 2744 2746 2771  2744 2777 2824 2825  578 579 2460 2502  525 526 604 2033  1371 1380 1381 2777  977 1314 1316 2869  1934 2182 2259 2391  2715 2783 2784 2793  504 505 1798 2454  579 580 2502 2516  579 580 599 2051  870 871 2090 2789  246 1978 1979 2206  2707 2784 2789 2790  1214 1215 1256 2685  578 579 600 2051  886 1268 2806 2809  245 246 2144 2206  1870 1887 1888 2714  188 1273 1401 2816  1284 2817 2827 2829  895 896 915 2095  316 328 1990 2254  908 1275 1278 2822  1990 1996 2113 2254  928 1286 2830 2832  1261 1290 1291 2833  937 2845 2847 2848  1250 2777 2779 2832  316 1990 1996 2254  231 349 2000 2001  231 349 350 2001  579 599 600 2051  938 1301 2848 2849  1300 1301 1381 2849  578 579 2051 2502  2715 2835 2842 2845  973 974 1325 2864  1609 2861 2862 2864  579 580 2051 2502  43 630 986 2549  1297 1298 2843 2845  1298 1313 2845 2868  820 2749 2759 2760  2299 2489 2494 2501  43 630 1555 2549  555 2490 2493 2494  554 1622 2490 2492  555 556 2493 2494  481 1083 2414 2418  1335 2555 2557 2563  52 1560 1625 2405  1647 1703 2489 2491  468 469 2353 2400  361 362 1033 2289  635 2555 2556 2557  173 650 651 1476  468 2023 2024 2117  1155 1337 1356 2567  431 468 2023 2024  2249 2297 2315 2316  2515 2517 2518 2731  2526 2724 2729 2739  1212 2677 2680 2681  431 467 468 2024  1614 1632 1638 2805  1263 2805 2806 2807  527 605 606 2034  635 2556 2557 2558  635 636 1132 2557  2650 2832 2835 2836  482 483 1084 2415  784 796 1239 2740  1195 2633 2635 2636  636 1131 1133 2559  2561 2563 2564 2566  110 111 1411 1717  504 563 2039 2045  1410 1421 2851 2853  2561 2564 2565 2566  974 975 1310 2867  1882 1898 2741 2749  1416 1417 2819 2820  128 129 1438 1781  889 1895 1896 2743  974 975 2866 2867  1455 1519 2662 2667  504 505 2442 2447  2319 2495 2551 2564  674 1837 1838 2604  620 621 674 2056  2055 2056 2120 2598  844 845 1246 2774  386 1763 1764 2315  1480 1499 1500 2250  940 941 960 2105  136 137 588 1446  2319 2551 2564 2566  732 744 2648 2656  733 734 1845 2659  845 1246 1249 2774  578 600 601 2052  577 578 601 2052  907 908 1275 2821  1877 1963 2644 2668  2551 2563 2564 2566  1820 1857 2449 2701  612 2535 2542 2543  612 613 2535 2543  736 1848 2654 2660  874 2088 2089 2789  873 874 2089 2789  2720 2748 2778 2795  852 872 2089 2090  366 1039 1040 2296  2579 2580 2581 2583  365 366 1039 2296  2099 2100 2127 2810  2100 2101 2127 2810  611 612 2535 2542  611 612 2037 2535  612 613 2037 2535  2548 2550 2551 2563  1436 1501 2313 2314  290 338 1983 1989  1145 1148 1337 2571  1983 1989 2111 2268  1337 2567 2571 2574  123 124 338 1433  2062 2063 2122 2693  1426 1427 1491 2142  283 284 2228 2233  765 2060 2066 2693  766 767 1862 2704  760 761 2062 2693  766 1861 1862 2703  366 1040 2295 2296  144 816 817 1453  763 2060 2061 2693  991 1159 1208 2582  656 657 1158 2583  2365 2440 2464 2468  576 588 590 2046  1159 1208 2582 2674  1451 1515 2506 2644  140 738 1450 2661  2276 2277 2288 2293  213 1424 2154 2155  213 214 1330 2155  763 764 2456 2693  1360 1368 1382 2612  214 1330 1523 2155  1538 1539 1542 2151  1542 2131 2151 2234  210 286 1974 1975  2131 2148 2229 2231  2132 2153 2167 2168  2130 2132 2153 2167  2129 2131 2148 2151  288 1528 1534 2151  1633 1639 2840 2842  220 221 1001 2167  2131 2156 2158 2168  1633 1658 1659 2842  289 2202 2229 2234  1189 1190 2595 2608  1944 2140 2230 2231  118 119 227 1428  1427 1492 2130 2133  1490 1491 2130 2142  1736 2134 2148 2230  1791 1792 1910 2354  668 669 2598 2599  949 1566 1919 2853  950 951 1567 2854  1488 1490 1491 2130  66 950 951 1567  77 769 1579 1863  768 1579 1580 2705  1578 1665 1666 2706  1360 1382 2612 2638  767 768 1580 2705  587 591 592 2047  180 355 2276 2278  2325 2326 2551 2566  180 355 356 2278  1713 1863 1928 2706  611 1830 1831 2473  281 2142 2173 2232  2192 2254 2255 2261  1650 1687 2215 2334  1577 1713 2706 2710  2152 2153 2167 2168  181 356 2226 2278  21 1544 1610 2865  933 1295 2840 2841  2716 2837 2840 2847  126 384 1436 2313  995 997 1338 2158  1143 1145 1356 2569  2650 2716 2835 2836  1297 2843 2845 2846  1570 1571 1659 2784  932 933 1295 2841  47 552 1109 2488  644 1143 1145 2569  1750 1932 1967 2262  405 1056 2339 2345  1545 1611 1633 2840  1611 1633 1639 2840  1666 2622 2706 2731  1567 1568 1656 2854  1345 1390 2343 2381  708 1553 1618 2626  2147 2161 2163 2338  1623 2487 2488 2489  1553 1618 1700 2626  61 62 1409 1564  949 955 956 2103  701 769 770 2064  268 1010 2209 2211  2141 2169 2170 2211  267 268 2209 2210  774 775 2709 2711  2141 2169 2209 2211  1932 1933 1967 2199  975 1310 1312 2867  232 233 2000 2178  88 610 1590 1830  774 775 1868 2709  609 2535 2539 2542  1926 1932 1933 2199  2443 2449 2465 2529  1653 1691 2145 2330  1593 1594 1681 2469  2192 2194 2256 2334  1603 1690 1691 2252  233 1999 2000 2178  1999 2000 2112 2178  1582 1918 1925 2547  1643 2628 2631 2632  1559 1649 1705 2403  1881 1882 1898 2749  2326 2550 2552 2555  1360 2591 2612 2638  608 609 1589 2539  1550 1616 1641 2726  235 236 2178 2196  1429 1493 2136 2177  340 341 2189 2275  121 1430 1431 2189  341 1760 1912 2189  2180 2181 2185 2218  1721 1760 1912 2189  1371 1376 1381 2824  1077 2407 2410 2486  244 1979 1980 2206  1371 1381 2777 2824  2140 2204 2262 2344  333 1755 1756 2272  244 245 2144 2206  506 564 2039 2040  2140 2199 2204 2262  101 318 1603 1743  326 327 1749 2263  449 1527 1533 2374  243 1732 2144 2204  1786 1787 2186 2395  2182 2214 2271 2394  466 467 2024 2399  2450 2546 2601 2603  333 2185 2243 2269  333 334 2185 2272  387 388 2306 2316  975 1312 2866 2867  2346 2369 2371 2446  1280 1371 1376 2824  508 566 2040 2041  1280 1371 2776 2824  1957 1959 2324 2368  2455 2517 2518 2620  2181 2218 2283 2284  1186 1474 2576 2619  1744 1745 1783 2258  1327 1558 1624 2407  332 1986 2267 2268  323 1745 2187 2257  1798 2452 2454 2606  2164 2203 2204 2262  476 477 1327 2407  622 673 2056 2057  2143 2164 2262 2344  2235 2300 2312 2313  1766 2247 2301 2316  1811 1831 1832 2484  2143 2161 2164 2344  817 2646 2753 2759  818 819 2756 2759  513 514 544 2026  761 1856 1857 2699  2456 2517 2699 2700  1745 1783 1784 2258  2455 2456 2457 2517  239 240 2149 2201  240 2135 2149 2201  602 614 2535 2543  1535 1541 2149 2201  309 322 323 1993  309 310 322 1993  1797 1841 1927 2452  845 1248 2774 2777  1241 1254 2690 2766  944 2107 2108 2850  502 503 2442 2447  266 1008 2207 2210  946 953 2102 2108  732 733 2648 2658  267 268 1011 2210  1815 2510 2654 2660  2503 2504 2648 2664  774 2695 2709 2711  1007 2207 2208 2210  2647 2692 2766 2767  2718 2783 2787 2788  267 1009 1010 2209  267 268 1010 2209  1218 1241 1254 2690  777 2085 2086 2126  1079 1123 1393 2410  863 864 2094 2789  270 271 1015 2216  271 1016 2216 2217  1014 1017 1340 2212  1011 1014 1340 2212  895 914 915 2095  1011 1340 2210 2212  1882 2741 2749 2765  1017 1340 2212 2222  940 959 960 2105  645 2562 2571 2573  950 2761 2850 2853  1568 1656 1657 2792  1570 1658 1659 2784  1658 1659 2784 2842  1409 1564 2862 2863  1569 1711 2792 2794  940 941 2717 2761  1017 2212 2217 2222  1494 2174 2225 2227  63 64 1566 1919  1484 2174 2226 2227  1121 1349 1393 2499  1 63 64 1919  1467 1512 2505 2580  1082 1343 1349 2412  580 581 1817 2516  1789 1940 1941 2396  2237 2240 2241 2400  945 946 965 2108  1080 1082 1349 2412  1769 1807 1958 2327  357 358 1027 2279  369 370 393 2005  2455 2517 2620 2699  356 357 1025 2226  357 1025 1027 2226  281 2142 2148 2232  847 848 1253 2782  1640 1696 2728 2731  2455 2525 2697 2698  1467 1468 2580 2582  1520 2745 2746 2750  2667 2745 2746 2757  836 1241 1254 2766  741 742 1850 2668  2653 2830 2831 2836  1145 1337 1356 2571  2317 2560 2572 2573  1127 1129 1335 2555  634 1128 2554 2556  1752 1753 2239 2266  2238 2241 2353 2399  1945 2176 2195 2266  2238 2353 2392 2399  86 607 1587 1829  2238 2353 2390 2403  102 103 1604 1716  733 1845 2507 2659  315 317 318 1996  2215 2238 2390 2403  1520 2667 2745 2746  2667 2741 2757 2764  1438 1502 1503 2297  2215 2403 2408 2416  2462 2466 2503 2660  470 471 2022 2353  427 459 471 2022  1129 1132 1335 2555  466 2024 2117 2399  2020 2021 2117 2392  464 1785 2393 2394  548 1813 2470 2485  499 500 571 2043  1525 1538 2131 2156  664 1170 1171 2592  2237 2240 2272 2396  1811 1831 2484 2485  1663 2712 2713 2802  586 587 2530 2531  1225 1551 2723 2725  576 588 1446 2511  2504 2672 2673 2675  506 507 565 2040  1616 1641 2725 2726  967 1304 1306 2858  582 2049 2050 2502  580 598 599 2051  580 598 2050 2051  2240 2245 2246 2478  696 697 761 2062  2361 2459 2464 2465  767 2065 2066 2693  2667 2745 2757 2764  278 279 1735 2230  133 498 1443 2441  1854 1867 1952 2698  720 744 2067 2068  738 2070 2071 2658  278 279 2148 2230  2513 2655 2656 2657  734 735 2072 2658  774 775 2084 2126  278 2148 2230 2231  317 318 2253 2255  318 2252 2255 2256  2329 2330 2331 2332  1562 1627 1706 2331  147 148 894 1457  2319 2470 2473 2485  895 896 2095 2810  2095 2101 2127 2810  894 895 2810 2813  1746 1785 1934 2391  2187 2238 2258 2393  944 963 964 2107  91 549 1592 1813  635 1129 1132 2555  1649 1684 1685 2403  521 537 549 2030  2176 2182 2188 2214  1592 1680 2470 2474  469 470 2353 2401  135 136 1445 1718  1443 2351 2441 2467  2137 2174 2220 2225  943 962 963 2107  278 2148 2229 2231  274 2222 2224 2225  900 919 920 2098  184 1486 1487 2207  1584 1585 1672 2600  1926 2134 2199 2200  2131 2158 2162 2167  2161 2213 2216 2341  2129 2148 2151 2233  277 1734 1741 2202  454 1066 1392 2381  510 568 569 2042  2132 2154 2155 2156  234 2178 2193 2196  891 923 924 2100  327 328 2263 2264  455 1064 1067 2382  686 1149 1183 2616  1406 1412 1419 2811  2298 2305 2320 2429  901 913 1284 2829  780 781 2714 2719  987 1077 1327 2407  1000 1338 2158 2168  206 277 289 1972  139 1448 1930 2654  338 1432 1433 2275  1730 1734 1741 2202  947 953 954 2102  1432 1433 1497 2275  2748 2824 2825 2871  2237 2396 2397 2398  2236 2246 2287 2292  2778 2849 2868 2869  987 1327 1558 2407  459 460 2021 2353  1313 2845 2866 2868  1337 1356 2567 2571  1760 2189 2265 2270  1936 1940 2272 2327  1483 1484 1495 2226  507 508 566 2040  339 340 2267 2275  181 1483 1484 2226  1277 1317 2857 2871  233 234 2178 2193  1945 2176 2182 2198  907 1276 1277 2821  1277 1279 2821 2871  2248 2428 2429 2500  946 947 953 2102  243 244 258 1980  269 1012 1013 2213  2649 2720 2741 2825  1414 1420 1421 2763  1317 2857 2870 2871  1016 2217 2221 2342  2135 2140 2150 2383  1812 1831 2473 2485  272 1017 2217 2219  2174 2220 2224 2225  1030 1384 2281 2284  1031 1085 1385 2420  217 1324 2156 2160  1314 1381 2849 2869  220 999 1001 2162  944 945 964 2108  1522 1523 1524 2155  1483 1495 2175 2226  277 289 2228 2229  1740 2201 2202 2234  2175 2226 2277 2280  2621 2652 2713 2719  1423 2132 2153 2155  685 686 1183 2614  2142 2148 2228 2233  379 382 383 2010  2148 2151 2228 2233  1423 1522 2129 2233  372 373 390 2006  441 442 1780 2370  2133 2138 2200 2232  240 1729 1923 2201  1940 1958 2240 2327  19 972 1543 1609  1544 1609 1654 2864  2236 2237 2240 2287  288 1534 1740 2234  1754 2186 2243 2397  2236 2240 2246 2287  2183 2235 2300 2310  1095 1096 1383 2427  491 492 1098 2428  1098 2428 2429 2500  131 442 443 1440  492 2426 2428 2430  2236 2237 2240 2272  311 312 321 1994  321 1601 2256 2257  972 973 1309 2861  2147 2163 2176 2191  1747 1748 1966 2259  973 1309 1310 2861  2133 2138 2196 2200  2763 2869 2870 2871  1032 2282 2288 2289  420 465 466 2018  2175 2218 2280 2283  465 2392 2395 2399  2286 2287 2289 2418  2287 2412 2414 2418  1077 1107 2410 2486  2181 2185 2218 2237  1757 1936 2251 2272  314 315 318 1996  2185 2236 2237 2272  1496 1497 2175 2275  1031 1085 2417 2420  290 338 339 1983  2185 2218 2236 2237  63 1402 1565 2853  338 339 1432 2275  1433 1497 2180 2275  2180 2268 2269 2275  943 1905 2747 2852  2218 2282 2288 2289  1494 2137 2174 2225  361 1032 2282 2289  1483 2175 2226 2277  2181 2218 2284 2417  2761 2762 2763 2853  2504 2505 2673 2674  180 355 367 2276  1480 1481 2184 2422  1409 2860 2862 2863  891 1406 1412 2811  0 8 18 61  364 365 1038 2293  364 2290 2291 2293  2440 2464 2531 2532  947 1403 1410 2853  2318 2324 2367 2557  1775 1776 1959 2368  179 367 1482 2295  2320 2498 2565 2566  2318 2326 2561 2566  2317 2571 2572 2573  123 338 339 1432  1356 2567 2569 2571  1035 2288 2290 2293  2821 2856 2857 2871  653 1154 1156 2438  175 1154 1358 2438  1767 1937 1938 2301  2163 2182 2198 2259  386 387 2314 2315  2757 2821 2856 2871  407 442 2011 2017  385 386 1763 2314  1405 1411 1717 2743  388 389 2306 2311  1498 2184 2294 2295  1406 1419 2811 2812  2247 2306 2314 2316  389 2247 2306 2316  389 390 2247 2306  389 390 1767 2247  941 942 2717 2761  541 542 1806 2480  544 1808 1809 2321  1498 2180 2183 2294  522 548 549 2031  2832 2834 2835 2848  1769 1807 1808 2323  2834 2835 2836 2837  2744 2746 2757 2827  2240 2244 2327 2480  1806 2240 2478 2480  515 542 543 2027  522 523 548 2031  1962 2251 2327 2328  1513 2462 2503 2654  1072 1074 2335 2404  1560 1625 1650 2405  2298 2302 2305 2320  1625 1650 1705 2405  481 482 1083 2414  1013 1341 2213 2341  405 1054 1055 2343  1066 2381 2382 2385  2305 2318 2320 2562  2305 2320 2562 2570  2247 2248 2298 2305  433 434 2357 2358  245 246 1716 2144  24 933 1294 1546  1674 2472 2540 2624  2247 2301 2305 2316  1251 1288 1388 2830  433 445 2355 2357  238 1530 2149 2205  1819 1820 1857 2701  2466 2503 2659 2660  942 2717 2747 2761  504 1798 2452 2454  683 1178 1180 2611  663 1168 1170 2591  2350 2610 2613 2614  361 362 1032 2289  2363 2540 2597 2599  245 1716 1733 2144  669 670 2598 2600  2347 2362 2545 2606  843 844 2774 2776  1288 1375 2830 2833  2317 2324 2559 2560  717 718 1203 2641  708 709 1618 2627  2325 2539 2542 2551  2462 2503 2654 2660  392 1769 2323 2328  896 1913 2813 2814  2350 2447 2452 2454  446 447 1629 2373  1481 1498 2184 2295  450 451 2374 2375  656 1158 2579 2583  1499 2183 2184 2235  2382 2383 2384 2387  1064 1067 2382 2384  244 1732 1733 2144  459 1597 1598 2390  1597 1598 1685 2390  310 322 1993 1994  361 1033 2289 2417  2299 2475 2477 2478  2743 2747 2757 2856  1435 1499 1500 2235  539 540 1804 2477  942 943 2747 2761  941 942 2761 2850  477 478 1077 2407  787 788 1550 2726  1758 1761 1771 2273  51 1559 1625 2406  48 49 987 1558  1758 1771 2251 2273  1679 1708 2470 2491  942 1904 2720 2747  1381 2777 2849 2869  1376 2824 2869 2871  758 759 2693 2694  244 245 1733 2144  2302 2533 2543 2544  325 326 2260 2261  2298 2319 2320 2498  481 2412 2414 2418  234 1724 1725 2198  233 234 1724 2198  1412 1413 2743 2811  1039 1090 1092 2296  2645 2649 2651 2718  889 890 2099 2810  2184 2242 2250 2425  2236 2242 2424 2427  1235 1238 1333 2739  178 485 486 1480  1725 1748 2198 2260  890 891 2810 2811  2498 2564 2565 2566  2319 2496 2498 2564  1115 1139 2496 2564  324 325 1747 2259  1725 2197 2198 2260  982 1326 1549 2805  1115 1137 2564 2565  1099 1117 1351 2429  882 1262 1263 2804  1101 1102 1140 2431  2325 2326 2367 2472  942 943 2761 2850  2495 2548 2551 2564  1438 1502 2297 2315  1438 2297 2315 2372  2423 2433 2434 2439  650 1475 1476 2574  175 176 1358 1478  2309 2562 2569 2571  2249 2436 2438 2439  2548 2551 2563 2564  648 649 2574 2576  175 652 1154 2577  943 2761 2850 2851  2308 2317 2571 2575  649 1152 2574 2576  656 657 1159 2584  1715 1812 1813 2473  234 235 1725 2197  628 1124 2495 2548  579 580 1816 2519  2135 2150 2202 2231  1510 2440 2511 2532  1579 1580 1667 2705  640 2561 2563 2564  234 1725 2197 2198  657 658 1161 2584  2453 2460 2466 2516  1467 1468 1512 2580  2453 2516 2527 2528  1632 1696 2731 2732  89 1591 1715 2473  1802 1823 2464 2468  1799 1800 1942 2458  2351 2361 2365 2607  1467 1513 2504 2505  2645 2649 2718 2742  1059 1060 1346 2374  1891 1892 1902 2793  506 1799 1800 2458  2361 2458 2459 2465  871 872 2783 2793  2361 2451 2458 2465  1820 1857 1858 2449  587 2502 2530 2531  1831 2473 2484 2485  1492 1493 2133 2139  584 594 595 2049  2440 2460 2463 2511  585 2464 2465 2531  520 538 2029 2030  1642 1670 2450 2631  1647 2490 2491 2492  540 1804 1805 2477  977 978 1315 2870  1892 1902 2793 2795  317 318 1743 2253  549 2030 2031 2118  316 317 2253 2255  1557 1623 1703 2488  336 2180 2273 2274  509 510 2442 2467  316 2254 2255 2264  1768 1808 2321 2323  1902 2717 2793 2795  488 489 2424 2425  1768 1809 1938 2321  390 391 2306 2323  2322 2491 2493 2494  2299 2322 2491 2494  2322 2496 2497 2498  558 1115 1352 2498  401 402 1049 2337  2320 2562 2565 2566  402 1049 1348 2337  492 1098 1099 2429  873 2783 2787 2795  492 493 1099 2430  736 737 1848 2654  1806 1941 1958 2240  737 738 1849 2661  2503 2507 2648 2659  1213 1365 2679 2684  2674 2676 2677 2678  720 721 744 2068  548 549 2476 2483  2707 2784 2789 2791  2798 2799 2806 2809  2798 2799 2806 2807  2652 2653 2716 2833  1845 1950 2507 2659  2521 2656 2657 2669  782 783 1872 2721  1939 1943 2302 2544  323 2187 2254 2257  2133 2138 2141 2232  1163 1357 2585 2590  1872 1955 1965 2721  759 2693 2694 2700  2453 2524 2527 2701  326 1748 1749 2260  1357 2583 2585 2590  1235 1333 2729 2739  1775 1825 1834 2534  612 1831 2484 2542  2337 2338 2342 2419  405 406 2343 2345  1591 1715 1813 2473  2325 2538 2542 2543  602 1825 1834 2534  866 867 2789 2791  866 2707 2789 2791  405 406 1056 2345  328 2203 2262 2264  874 2783 2789 2790  1552 1699 2630 2632  394 406 1056 2345  1582 1669 1670 2703  1043 1056 1344 2329  633 634 1128 2554  1710 2326 2539 2551  394 1043 1056 2329  942 943 2106 2850  405 1053 1056 2339  1766 1772 2316 2356  871 2784 2793 2794  2304 2309 2352 2358  645 646 2571 2573  2308 2309 2571 2574  2651 2777 2779 2832  2651 2718 2777 2832  638 2557 2561 2562  2367 2557 2558 2560  2650 2651 2718 2832  526 527 605 2033  647 648 1148 2575  1468 2579 2580 2582  2580 2583 2584 2586  791 1229 1232 2729  1053 1056 2339 2340  661 2585 2588 2590  547 548 2476 2483  844 1247 1248 2776  847 1249 1252 2782  848 2766 2780 2782  1211 1212 1366 2677  677 1841 2347 2606  661 662 1166 2590  1249 2774 2779 2782  837 838 1242 2767  1181 1202 1387 2615  1240 1252 1370 2768  847 1253 2779 2782  2662 2744 2773 2775  222 1002 1004 2169  2662 2749 2756 2759  2350 2454 2458 2461  760 2620 2699 2700  1882 1883 1929 2765  714 2636 2637 2640  1177 1382 2611 2612  158 1283 1285 2828  764 765 2602 2702  800 801 820 2076  158 989 1283 2771  1004 1005 2171 2172  820 821 1882 2765  1453 1518 2646 2756  678 679 2347 2545  2347 2362 2363 2545  1184 1187 1353 2618  1229 1232 1333 2729  1180 2613 2639 2640  2350 2351 2607 2614  2346 2614 2616 2617  1149 1183 2572 2616  1617 1642 1699 2723  709 1618 2627 2632  2367 2553 2555 2556  1553 1644 2625 2626  941 942 2106 2850  708 1618 2626 2627  1827 1828 1843 2537  605 1827 1828 2537  605 1828 2348 2537  711 1194 1195 2633  763 764 1859 2604  788 789 1318 2728  2757 2825 2856 2871  2362 2364 2613 2642  713 714 1198 2636  1828 1835 1843 2597  669 1585 1714 2540  1618 1700 2626 2627  2629 2636 2639 2642  2835 2845 2847 2848  881 1262 2801 2804  930 931 2833 2837  874 2783 2787 2788  871 872 1891 2793  2621 2652 2800 2803  897 2745 2764 2810  1589 1590 1677 2541  879 880 1260 2801  1548 1614 1638 2804  1632 1638 1664 2523  1615 1696 2728 2732  683 1180 2611 2613  2621 2652 2802 2803  2801 2802 2803 2807  930 931 1292 2837  143 815 1452 2646  2350 2361 2458 2461  434 435 2357 2358  1453 1517 1518 2646  814 815 1878 2644  815 1452 2644 2646  2521 2708 2719 2721  528 529 607 2034  1886 1887 2643 2785  1852 1931 2666 2669  2763 2856 2857 2871  904 1399 2816 2818  2512 2520 2669 2683  433 434 2356 2358  512 545 546 2025  2662 2744 2771 2773  928 1288 2830 2836  1216 1219 1365 2688  2643 2650 2652 2653  413 435 436 2014  2443 2453 2455 2518  2361 2443 2591 2593  2508 2525 2655 2698  759 760 2620 2697  2517 2620 2694 2700  760 761 2693 2700  1864 2696 2706 2709  436 2358 2359 2368  1477 1478 1503 2297  623 624 671 2057  2726 2727 2728 2729  2350 2362 2605 2606  2636 2639 2640 2642  79 80 1581 1862  200 282 283 1969  1667 2704 2705 2727  1557 1622 1647 2492  1644 1672 1709 2628  2515 2696 2706 2709  876 1255 1257 2798  784 1223 1239 2722  31 1549 1615 2732  1237 1239 2638 2740  996 998 2159 2380  2715 2718 2783 2795  1178 1199 1382 2640  667 668 2598 2599  201 202 281 1970  603 2032 2033 2535  540 541 2475 2478  1886 1887 1955 2643  1871 1955 2643 2721  103 104 1605 1915  1226 1227 2724 2726  994 1338 2154 2156  1338 2154 2156 2168  1641 1642 2526 2723  787 1550 1616 2726  104 247 1605 1606  1255 1268 1373 2798  667 668 2059 2598  2515 2620 2622 2696  1666 2622 2727 2731  1549 1632 2732 2805  1230 1266 1267 2734  750 1212 2677 2680  437 438 2352 2368  1669 2450 2703 2704  2445 2450 2451 2637  2349 2350 2351 2447  2308 2574 2575 2576  1581 1668 1669 2704  711 983 1363 2630  2445 2450 2631 2637  2521 2652 2653 2800  753 754 1216 2687  2651 2779 2782 2831  2645 2742 2751 2786  1230 1266 2734 2808  1549 1632 1696 2732  817 818 2753 2759  1517 2644 2646 2647  246 247 1605 1915  2731 2732 2805 2808  996 1062 1063 2380  1477 1478 2297 2438  2150 2377 2378 2380  1455 1519 1520 2667  899 918 919 2097  1882 1899 1929 2741  2150 2378 2379 2380  457 1070 2387 2388  2134 2141 2146 2166  158 1285 1460 2828  2744 2775 2776 2777  1519 2662 2770 2771  2649 2651 2718 2777  1247 1280 1371 2776  787 1226 2725 2726  1247 1248 1371 2776  1854 1867 2698 2709  2145 2330 2386 2389  864 865 1887 2785  2145 2164 2330 2386  1640 1666 2727 2731  2707 2715 2784 2790  851 872 873 2089  779 780 835 2872  1227 2724 2726 2729  869 870 2784 2789  1631 1638 2802 2804  68 1569 1570 2794  544 2303 2481 2482  1429 1430 1494 2179  773 2083 2084 2126  1931 1955 1965 2669  787 1616 2725 2726  1711 1891 1909 2792  104 247 1605 1915  546 547 2025 2483  2523 2804 2805 2807  1628 1653 1707 2145  2521 2653 2682 2683  1214 1256 2685 2796  756 1220 1221 2689  2647 2691 2692 2766  2245 2354 2402 2477  1375 2653 2800 2833  1212 1366 2677 2681  2508 2681 2797 2809  778 779 834 2086  886 1267 1269 2809  613 614 2535 2543  1228 1230 2730 2808  902 1271 1272 2817  2329 2330 2345 2386  714 715 1198 2636  2747 2757 2825 2856  775 830 831 2085  979 1276 1321 2820  1397 1398 1416 2820  969 1395 1396 2859  12 979 1397 2820  2299 2303 2474 2475  392 1769 1770 2328  2238 2392 2393 2395  1682 1683 2245 2354  910 1278 1281 2827  2741 2744 2757 2825  465 1786 1787 2395  1459 2750 2817 2829  909 1280 1376 2824  1612 1635 1695 2839  25 1293 1294 1612  1636 2801 2802 2838  464 1786 2394 2395  2218 2287 2289 2417  26 1547 1612 2838  117 1426 1427 2142  90 1591 1592 1813  2843 2844 2865 2866  22 980 1297 2843  539 1804 2354 2477  1551 1641 1642 2723  2762 2778 2866 2867  2762 2844 2864 2866  1569 1657 1658 2794  2652 2707 2714 2791  1670 2450 2547 2703  943 944 1905 2852  473 1072 1074 2404  107 108 947 1403  63 1566 1919 2853  1398 1417 2818 2820  52 474 1625 2405  1669 1670 2450 2703  1397 1416 2820 2855  11 979 1397 2855  1308 1309 1310 2861  1671 2547 2600 2631  1699 2630 2631 2632  473 474 2405 2406  1298 1313 1314 2868  2762 2864 2866 2867  1644 2540 2624 2628  1634 1657 2762 2844  1955 1965 2669 2721  1079 1107 1123 2410  909 1279 1376 2824  70 71 1572 1889  615 667 668 2059  1383 2292 2427 2499  1121 1123 1393 2499  1049 1086 1088 2419  1267 1269 1369 2735  472 1088 2404 2421  794 1234 2736 2737  1088 2404 2419 2421  1086 1348 2419 2420  2650 2653 2716 2836  1571 1659 1660 2784  745 746 1466 2672  1049 1086 1348 2419  908 909 1279 2823  909 1279 2823 2824  714 2637 2638 2640  1682 2354 2469 2477  489 1094 2425 2426  2443 2449 2455 2457  2242 2248 2428 2500  2242 2244 2285 2323  2183 2236 2242 2300  2183 2184 2236 2242  239 240 1982 2110  392 393 1770 2328  2320 2429 2498 2570  2431 2432 2435 2436  2430 2431 2432 2436  1140 2431 2435 2568  493 1099 1101 2430  1099 1101 2429 2430  2365 2459 2461 2467  506 507 2040 2442  506 2039 2040 2442  2518 2526 2729 2738  1470 2440 2595 2596  540 2475 2477 2478  784 1224 2722 2739  2455 2456 2517 2699  791 1232 2729 2733  788 1227 2726 2728  1551 1641 2723 2725  2450 2451 2457 2637  1228 1230 1266 2808  763 764 2456 2604  789 790 1228 2730  2457 2526 2738 2740  1218 1220 1241 2690  902 1272 2816 2817  1223 2634 2722 2723  836 837 2766 2768  677 1840 2605 2606  898 917 2096 2097  1550 1640 1641 2726  810 811 2751 2752  2350 2611 2613 2640  1649 1685 1705 2403  1545 1610 1637 2846  505 2447 2454 2461  2350 2447 2454 2461  2521 2682 2799 2800  1258 1375 2682 2800  2682 2683 2685 2686  2351 2365 2461 2467  2627 2628 2629 2633  2350 2351 2447 2461  1545 1633 1637 2846  1633 1637 1658 2842  193 1529 1534 2201  1036 1343 1386 2291  2361 2365 2459 2461  1037 1092 2296 2424  490 491 2426 2428  2350 2351 2361 2607  876 877 1257 2798  2350 2351 2361 2461  1595 1910 2354 2469  1633 1637 2842 2846  1594 1681 1682 2469  537 1593 1594 2469  1681 1682 2469 2489  1681 2469 2474 2489  452 453 1061 2377  543 544 1808 2481  2521 2682 2796 2799  1569 1570 1658 2794  446 458 1070 2388  2236 2240 2244 2246  2521 2653 2682 2800  543 1807 1808 2481  747 748 1208 2675  166 655 1323 2579  2303 2470 2476 2485  2512 2656 2666 2669  547 2303 2476 2485  555 1111 1113 2494  897 898 2764 2810  556 1113 2494 2496  555 556 1113 2494  1111 1113 1336 2494  1111 2490 2492 2494  1474 1505 1506 2576  85 1586 1714 1829  1110 1111 2492 2494  426 427 459 2021  561 1120 1121 2499  559 560 1119 2500  2351 2361 2365 2461  536 602 614 2038  165 1467 1468 2582  787 1226 1227 2726  182 1022 1485 2227  1817 1818 1946 2524  1817 1946 2524 2525  141 740 1450 1451  2506 2665 2666 2668  2518 2733 2736 2737  1884 1894 1954 2742  217 996 2159 2160  2453 2516 2524 2527  1423 1425 1490 2233  1501 2235 2313 2314  2453 2516 2524 2525  1963 2644 2665 2668  744 2656 2666 2669  2460 2462 2466 2519  582 2516 2527 2528  582 2516 2524 2527  2521 2796 2797 2799  1886 1956 2643 2786  1636 1662 2802 2839  2730 2731 2734 2808  1230 2730 2734 2808  146 147 1456 1913  160 161 839 1463  2731 2805 2806 2808  2512 2522 2578 2648  898 899 2764 2810  1328 1560 2336 2405  15 1400 1401 2816  2440 2443 2463 2594  879 981 1261 2838  2443 2451 2457 2591  1040 1090 1481 2296  2466 2503 2514 2678  1961 2324 2448 2536  1560 1626 1651 2334  2518 2588 2733 2737  2466 2503 2507 2659  897 898 2667 2764  1842 1927 1961 2347  1449 1849 2654 2661  1875 1931 1956 2754  2324 2364 2367 2536  2324 2348 2367 2536  1561 1626 1652 2333  1262 2801 2803 2807  2318 2325 2471 2543  649 650 1151 2574  1476 1504 2308 2577  875 887 2796 2798  2520 2645 2751 2786  887 2796 2798 2809  2521 2643 2652 2653  1871 2643 2714 2719  2319 2325 2551 2566  2319 2325 2543 2566  1641 1668 2526 2727  1671 2600 2628 2631  631 1126 1127 2550  362 363 1035 2288  630 1126 2548 2550  615 616 667 2053  1027 2223 2226 2279  274 2224 2225 2227  43 44 986 1621  244 258 1979 1980  2453 2509 2518 2588  2318 2326 2367 2557  247 254 255 1978  2521 2643 2669 2683  245 246 256 1979  2520 2751 2754 2786  1090 1481 2296 2422  171 1186 1474 2619  32 788 1318 2728  812 813 2079 2753  2324 2348 2367 2471  178 1090 1481 2422  602 603 1825 2534  1024 1026 2278 2280  1384 1385 2284 2420  2509 2518 2588 2589  2297 2435 2438 2567  1477 2297 2438 2577  360 361 1032 2282  618 677 678 2054  417 439 440 2016  617 618 678 2054  446 1563 1629 2373  988 1069 1071 2389  57 1562 1628 2389  641 653 2435 2567  518 519 539 2029  646 2571 2572 2573  714 715 2636 2640  1927 2347 2448 2452  2317 2571 2572 2575  647 1148 2571 2575  646 647 1148 2571  646 647 2571 2572  1148 2571 2574 2575  647 2571 2572 2575  501 2441 2446 2447  2463 2580 2581 2583  505 506 2454 2461  2347 2362 2364 2606  1513 2462 2504 2505  812 813 1876 2755  1481 1498 1499 2184  1826 1957 1961 2324  1469 2579 2580 2581  715 2636 2639 2640  1269 1366 1369 2735  2520 2651 2663 2782  1367 1375 2682 2781  1469 2463 2580 2581  2653 2682 2683 2781  178 1040 1090 1481  927 928 1286 2832  764 765 2060 2693  2517 2622 2694 2705  1604 1692 1716 2253  703 704 767 2065  703 767 768 2065  79 767 1581 1862  80 1581 1862 2703  1163 1166 1357 2590  2508 2509 2681 2735  1160 1357 2583 2585  1160 1163 1357 2585  503 504 1797 2452  1469 1510 1511 2463  773 774 2695 2708  677 678 2054 2120  771 826 827 2083  711 712 1195 2635  782 824 825 2082  2521 2643 2669 2721  1180 2613 2615 2639  1874 1956 2751 2786  678 679 2054 2120  721 722 743 2068  456 1067 2382 2387  677 678 2120 2598  939 1301 1303 2832  878 1259 1261 2800  1446 1510 2511 2532  23 934 1611 2840  878 1257 1260 2803  2526 2722 2724 2739  880 1260 1262 2801  1349 1383 2292 2499  1343 1349 1383 2292  1091 1350 2423 2425  1100 1103 1350 2433  766 1862 2703 2704  678 679 2120 2598  1095 1383 1386 2427  1042 1068 1069 2386  2140 2143 2262 2344  1315 1378 2858 2867  2456 2602 2702 2704  714 1364 2638 2640  1644 1700 1709 2628  2450 2631 2634 2637  2445 2633 2635 2636  8 9 970 1394  1481 2184 2296 2422  2445 2545 2599 2601  20 21 1325 1544  878 879 1261 2803  686 687 1182 2614  488 489 1094 2425  686 687 2614 2616  689 1184 1187 2618  2346 2351 2614 2619  1645 1697 1710 2552  875 887 1270 2796  1620 1645 1697 2552  688 689 1184 2619  628 1125 1138 2563  887 1270 2796 2809  1697 2549 2551 2552  639 640 1137 2565  2512 2521 2522 2683  1854 1855 1952 2698  780 823 835 2872  2298 2320 2429 2498  1845 1950 2507 2655  780 781 2708 2719  2761 2762 2792 2854  948 954 2102 2103  538 539 2118 2476  1575 1576 1663 2712  124 1433 1434 2274  1662 2713 2802 2839  1548 1631 1638 2804  1810 1943 2482 2484  671 672 2598 2601  1672 2540 2600 2628  617 678 679 2054  605 2471 2535 2538  607 608 1588 2539  2450 2547 2603 2703  2591 2592 2593 2594  671 1583 1584 2600  2445 2628 2631 2633  1643 1699 1709 2631  942 943 1904 2747  2317 2349 2364 2572  2362 2445 2636 2642  97 1599 1911 2390  107 947 948 1403  63 1403 1919 2853  108 946 947 1410  2720 2747 2763 2825  2175 2180 2269 2275  2445 2629 2633 2636  1487 1488 1491 2130  226 227 2177 2178  227 353 2002 2003  226 227 2003 2178  228 229 1429 2177  122 123 339 1432  2349 2364 2572 2615  124 125 1759 2274  715 1201 2636 2639  82 671 1583 1918  715 1200 2639 2640  714 715 1199 2640  2779 2830 2831 2832  810 811 1874 2751  493 494 1100 2430  724 740 2069 2070  723 724 741 2069  967 1307 2855 2859  154 155 449 1527  647 1149 2572 2575  2598 2599 2600 2601  154 449 1527 1533  2651 2779 2831 2832  2779 2781 2830 2831  1465 1515 1516 2692  1465 1466 2670 2671  2214 2284 2417 2420  1465 2670 2671 2689  1206 1222 2670 2688  1465 2578 2671 2689  </DataArray>
<DataArray  type="UInt32"  Name="offsets"  format="ascii">4 8 12 16 20 24 28 32 36 40 44 48 52 56 60 64 68 72 76 80 84 88 92 96 100 104 108 112 116 120 124 128 132 136 140 144 148 152 156 160 164 168 172 176 180 184 188 192 196 200 204 208 212 216 220 224 228 232 236 240 244 248 252 256 260 264 268 272 276 280 284 288 292 296 300 304 308 312 316 320 324 328 332 336 340 344 348 352 356 360 364 368 372 376 380 384 388 392 396 400 404 408 412 416 420 424 428 432 436 440 444 448 452 456 460 464 468 472 476 480 484 488 492 496 500 504 508 512 516 520 524 528 532 536 540 544 548 552 556 560 564 568 572 576 580 584 588 592 596 600 604 608 612 616 620 624 628 632 636 640 644 648 652 656 660 664 668 672 676 680 684 688 692 696 700 704 708 712 716 720 724 728 732 736 740 744 748 752 756 760 764 768 772 776 780 784 788 792 796 800 804 808 812 816 820 824 828 832 836 840 844 848 852 856 860 864 868 872 876 880 884 888 892 896 900 904 908 912 916 920 924 928 932 936 940 944 948 952 956 960 964 968 972 976 980 984 988 992 996 1000 1004 1008 1012 1016 1020 1024 1028 1032 1036 1040 1044 1048 1052 1056 1060 1064 1068 1072 1076 1080 1084 1088 1092 1096 1100 1104 1108 1112 1116 1120 1124 1128 1132 1136 1140 1144 1148 1152 1156 1160 1164 1168 1172 1176 1180 1184 1188 1192 1196 1200 1204 1208 1212 1216 1220 1224 1228 1232 1236 1240 1244 1248 1252 1256 1260 1264 1268 1272 1276 1280 1284 1288 1292 1296 1300 1304 1308 1312 1316 1320 1324 1328 1332 1336 1340 1344 1348 1352 1356 1360 1364 1368 1372 1376 1380 1384 1388 1392 1396 1400 1404 1408 1412 1416 1420 1424 1428 1432 1436 1440 1444 1448 1452 1456 1460 1464 1468 1472 1476 1480 1484 1488 1492 1496 1500 1504 1508 1512 1516 1520 1524 1528 1532 1536 1540 1544 1548 1552 1556 1560 1564 1568 1572 1576 1580 1584 1588 1592 1596 1600 1604 1608 1612 1616 1620 1624 1628 1632 1636 1640 1644 1648 1652 1656 1660 1664 1668 1672 1676 1680 1684 1688 1692 1696 1700 1704 1708 1712 1716 1720 1724 1728 1732 1736 1740 1744 1748 1752 1756 1760 1764 1768 1772 1776 1780 1784 1788 1792 1796 1800 1804 1808 1812 1816 1820 1824 1828 1832 1836 1840 1844 1848 1852 1856 1860 1864 1868 1872 1876 1880 1884 1888 1892 1896 1900 1904 1908 1912 1916 1920 1924 1928 1932 1936 1940 1944 1948 1952 1956 1960 1964 1968 1972 1976 1980 1984 1988 1992 1996 2000 2004 2008 2012 2016 2020 2024 2028 2032 2036 2040 2044 2048 2052 2056 2060 2064 2068 2072 2076 2080 2084 2088 2092 2096 2100 2104 2108 2112 2116 2120 2124 2128 2132 2136 2140 2144 2148 2152 2156 2160 2164 2168 2172 2176 2180 2184 2188 2192 2196 2200 2204 2208 2212 2216 2220 2224 2228 2232 2236 2240 2244 2248 2252 2256 2260 2264 2268 2272 2276 2280 2284 2288 2292 2296 2300 2304 2308 2312 2316 2320 2324 2328 2332 2336 2340 2344 2348 2352 2356 2360 2364 2368 2372 2376 2380 2384 2388 2392 2396 2400 2404 2408 2412 2416 2420 2424 2428 2432 2436 2440 2444 2448 2452 2456 2460 2464 2468 2472 2476 2480 2484 2488 2492 2496 2500 2504 2508 2512 2516 2520 2524 2528 2532 2536 2540 2544 2548 2552 2556 2560 2564 2568 2572 2576 2580 2584 2588 2592 2596 2600 2604 2608 2612 2616 2620 2624 2628 2632 2636 2640 2644 2648 2652 2656 2660 2664 2668 2672 2676 2680 2684 2688 2692 2696 2700 2704 2708 2712 2716 2720 2724 2728 2732 2736 2740 2744 2748 2752 2756 2760 2764 2768 2772 2776 2780 2784 2788 2792 2796 2800 2804 2808 2812 2816 2820 2824 2828 2832 2836 2840 2844 2848 2852 2856 2860 2864 2868 2872 2876 2880 2884 2888 2892 2896 2900 2904 2908 2912 2916 2920 2924 2928 2932 2936 2940 2944 2948 2952 2956 2960 2964 2968 2972 2976 2980 2984 2988 2992 2996 3000 3004 3008 3012 3016 3020 3024 3028 3032 3036 3040 3044 3048 3052 3056 3060 3064 3068 3072 3076 3080 3084 3088 3092 3096 3100 3104 3108 3112 3116 3120 3124 3128 3132 3136 3140 3144 3148 3152 3156 3160 3164 3168 3172 3176 3180 3184 3188 3192 3196 3200 3204 3208 3212 3216 3220 3224 3228 3232 3236 3240 3244 3248 3252 3256 3260 3264 3268 3272 3276 3280 3284 3288 3292 3296 3300 3304 3308 3312 3316 3320 3324 3328 3332 3336 3340 3344 3348 3352 3356 3360 3364 3368 3372 3376 3380 3384 3388 3392 3396 3400 3404 3408 3412 3416 3420 3424 3428 3432 3436 3440 3444 3448 3452 3456 3460 3464 3468 3472 3476 3480 3484 3488 3492 3496 3500 3504 3508 3512 3516 3520 3524 3528 3532 3536 3540 3544 3548 3552 3556 3560 3564 3568 3572 3576 3580 3584 3588 3592 3596 3600 3604 3608 3612 3616 3620 3624 3628 3632 3636 3640 3644 3648 3652 3656 3660 3664 3668 3672 3676 3680 3684 3688 3692 3696 3700 3704 3708 3712 3716 3720 3724 3728 3732 3736 3740 3744 3748 3752 3756 3760 3764 3768 3772 3776 3780 3784 3788 3792 3796 3800 3804 3808 3812 3816 3820 3824 3828 3832 3836 3840 3844 3848 3852 3856 3860 3864 3868 3872 3876 3880 3884 3888 3892 3896 3900 3904 3908 3912 3916 3920 3924 3928 3932 3936 3940 3944 3948 3952 3956 3960 3964 3968 3972 3976 3980 3984 3988 3992 3996 4000 4004 4008 4012 4016 4020 4024 4028 4032 4036 4040 4044 4048 4052 4056 4060 4064 4068 4072 4076 4080 4084 4088 4092 4096 4100 4104 4108 4112 4116 4120 4124 4128 4132 4136 4140 4144 4148 4152 4156 4160 4164 4168 4172 4176 4180 4184 4188 4192 4196 4200 4204 4208 4212 4216 4220 4224 4228 4232 4236 4240 4244 4248 4252 4256 4260 4264 4268 4272 4276 4280 4284 4288 4292 4296 4300 4304 4308 4312 4316 4320 4324 4328 4332 4336 4340 4344 4348 4352 4356 4360 4364 4368 4372 4376 4380 4384 4388 4392 4396 4400 4404 4408 4412 4416 4420 4424 4428 4432 4436 4440 4444 4448 4452 4456 4460 4464 4468 4472 4476 4480 4484 4488 4492 4496 4500 4504 4508 4512 4516 4520 4524 4528 4532 4536 4540 4544 4548 4552 4556 4560 4564 4568 4572 4576 4580 4584 4588 4592 4596 4600 4604 4608 4612 4616 4620 4624 4628 4632 4636 4640 4644 4648 4652 4656 4660 4664 4668 4672 4676 4680 4684 4688 4692 4696 4700 4704 4708 4712 4716 4720 4724 4728 4732 4736 4740 4744 4748 4752 4756 4760 4764 4768 4772 4776 4780 4784 4788 4792 4796 4800 4804 4808 4812 4816 4820 4824 4828 4832 4836 4840 4844 4848 4852 4856 4860 4864 4868 4872 4876 4880 4884 4888 4892 4896 4900 4904 4908 4912 4916 4920 4924 4928 4932 4936 4940 4944 4948 4952 4956 4960 4964 4968 4972 4976 4980 4984 4988 4992 4996 5000 5004 5008 5012 5016 5020 5024 5028 5032 5036 5040 5044 5048 5052 5056 5060 5064 5068 5072 5076 5080 5084 5088 5092 5096 5100 5104 5108 5112 5116 5120 5124 5128 5132 5136 5140 5144 5148 5152 5156 5160 5164 5168 5172 5176 5180 5184 5188 5192 5196 5200 5204 5208 5212 5216 5220 5224 5228 5232 5236 5240 5244 5248 5252 5256 5260 5264 5268 5272 5276 5280 5284 5288 5292 5296 5300 5304 5308 5312 5316 5320 5324 5328 5332 5336 5340 5344 5348 5352 5356 5360 5364 5368 5372 5376 5380 5384 5388 5392 5396 5400 5404 5408 5412 5416 5420 5424 5428 5432 5436 5440 5444 5448 5452 5456 5460 5464 5468 5472 5476 5480 5484 5488 5492 5496 5500 5504 5508 5512 5516 5520 5524 5528 5532 5536 5540 5544 5548 5552 5556 5560 5564 5568 5572 5576 5580 5584 5588 5592 5596 5600 5604 5608 5612 5616 5620 5624 5628 5632 5636 5640 5644 5648 5652 5656 5660 5664 5668 5672 5676 5680 5684 5688 5692 5696 5700 5704 5708 5712 5716 5720 5724 5728 5732 5736 5740 5744 5748 5752 5756 5760 5764 5768 5772 5776 5780 5784 5788 5792 5796 5800 5804 5808 5812 5816 5820 5824 5828 5832 5836 5840 5844 5848 5852 5856 5860 5864 5868 5872 5876 5880 5884 5888 5892 5896 5900 5904 5908 5912 5916 5920 5924 5928 5932 5936 5940 5944 5948 5952 5956 5960 5964 5968 5972 5976 5980 5984 5988 5992 5996 6000 6004 6008 6012 6016 6020 6024 6028 6032 6036 6040 6044 6048 6052 6056 6060 6064 6068 6072 6076 6080 6084 6088 6092 6096 6100 6104 6108 6112 6116 6120 6124 6128 6132 6136 6140 6144 6148 6152 6156 6160 6164 6168 6172 6176 6180 6184 6188 6192 6196 6200 6204 6208 6212 6216 6220 6224 6228 6232 6236 6240 6244 6248 6252 6256 6260 6264 6268 6272 6276 6280 6284 6288 6292 6296 6300 6304 6308 6312 6316 6320 6324 6328 6332 6336 6340 6344 6348 6352 6356 6360 6364 6368 6372 6376 6380 6384 6388 6392 6396 6400 6404 6408 6412 6416 6420 6424 6428 6432 6436 6440 6444 6448 6452 6456 6460 6464 6468 6472 6476 6480 6484 6488 6492 6496 6500 6504 6508 6512 6516 6520 6524 6528 6532 6536 6540 6544 6548 6552 6556 6560 6564 6568 6572 6576 6580 6584 6588 6592 6596 6600 6604 6608 6612 6616 6620 6624 6628 6632 6636 6640 6644 6648 6652 6656 6660 6664 6668 6672 6676 6680 6684 6688 6692 6696 6700 6704 6708 6712 6716 6720 6724 6728 6732 6736 6740 6744 6748 6752 6756 6760 6764 6768 6772 6776 6780 6784 6788 6792 6796 6800 6804 6808 6812 6816 6820 6824 6828 6832 6836 6840 6844 6848 6852 6856 6860 6864 6868 6872 6876 6880 6884 6888 6892 6896 6900 6904 6908 6912 6916 6920 6924 6928 6932 6936 6940 6944 6948 6952 6956 6960 6964 6968 6972 6976 6980 6984 6988 6992 6996 7000 7004 7008 7012 7016 7020 7024 7028 7032 7036 7040 7044 7048 7052 7056 7060 7064 7068 7072 7076 7080 7084 7088 7092 7096 7100 7104 7108 7112 7116 7120 7124 7128 7132 7136 7140 7144 7148 7152 7156 7160 7164 7168 7172 7176 7180 7184 7188 7192 7196 7200 7204 7208 7212 7216 7220 7224 7228 7232 7236 7240 7244 7248 7252 7256 7260 7264 7268 7272 7276 7280 7284 7288 7292 7296 7300 7304 7308 7312 7316 7320 7324 7328 7332 7336 7340 7344 7348 7352 7356 7360 7364 7368 7372 7376 7380 7384 7388 7392 7396 7400 7404 7408 7412 7416 7420 7424 7428 7432 7436 7440 7444 7448 7452 7456 7460 7464 7468 7472 7476 7480 7484 7488 7492 7496 7500 7504 7508 7512 7516 7520 7524 7528 7532 7536 7540 7544 7548 7552 7556 7560 7564 7568 7572 7576 7580 7584 7588 7592 7596 7600 7604 7608 7612 7616 7620 7624 7628 7632 7636 7640 7644 7648 7652 7656 7660 7664 7668 7672 7676 7680 7684 7688 7692 7696 7700 7704 7708 7712 7716 7720 7724 7728 7732 7736 7740 7744 7748 7752 7756 7760 7764 7768 7772 7776 7780 7784 7788 7792 7796 7800 7804 7808 7812 7816 7820 7824 7828 7832 7836 7840 7844 7848 7852 7856 7860 7864 7868 7872 7876 7880 7884 7888 7892 7896 7900 7904 7908 7912 7916 7920 7924 7928 7932 7936 7940 7944 7948 7952 7956 7960 7964 7968 7972 7976 7980 7984 7988 7992 7996 8000 8004 8008 8012 8016 8020 8024 8028 8032 8036 8040 8044 8048 8052 8056 8060 8064 8068 8072 8076 8080 8084 8088 8092 8096 8100 8104 8108 8112 8116 8120 8124 8128 8132 8136 8140 8144 8148 8152 8156 8160 8164 8168 8172 8176 8180 8184 8188 8192 8196 8200 8204 8208 8212 8216 8220 8224 8228 8232 8236 8240 8244 8248 8252 8256 8260 8264 8268 8272 8276 8280 8284 8288 8292 8296 8300 8304 8308 8312 8316 8320 8324 8328 8332 8336 8340 8344 8348 8352 8356 8360 8364 8368 8372 8376 8380 8384 8388 8392 8396 8400 8404 8408 8412 8416 8420 8424 8428 8432 8436 8440 8444 8448 8452 8456 8460 8464 8468 8472 8476 8480 8484 8488 8492 8496 8500 8504 8508 8512 8516 8520 8524 8528 8532 8536 8540 8544 8548 8552 8556 8560 8564 8568 8572 8576 8580 8584 8588 8592 8596 8600 8604 8608 8612 8616 8620 8624 8628 8632 8636 8640 8644 8648 8652 8656 8660 8664 8668 8672 8676 8680 8684 8688 8692 8696 8700 8704 8708 8712 8716 8720 8724 8728 8732 8736 8740 8744 8748 8752 8756 8760 8764 8768 8772 8776 8780 8784 8788 8792 8796 8800 8804 8808 8812 8816 8820 8824 8828 8832 8836 8840 8844 8848 8852 8856 8860 8864 8868 8872 8876 8880 8884 8888 8892 8896 8900 8904 8908 8912 8916 8920 8924 8928 8932 8936 8940 8944 8948 8952 8956 8960 8964 8968 8972 8976 8980 8984 8988 8992 8996 9000 9004 9008 9012 9016 9020 9024 9028 9032 9036 9040 9044 9048 9052 9056 9060 9064 9068 9072 9076 9080 9084 9088 9092 9096 9100 9104 9108 9112 9116 9120 9124 9128 9132 9136 9140 9144 9148 9152 9156 9160 9164 9168 9172 9176 9180 9184 9188 9192 9196 9200 9204 9208 9212 9216 9220 9224 9228 9232 9236 9240 9244 9248 9252 9256 9260 9264 9268 9272 9276 9280 9284 9288 9292 9296 9300 9304 9308 9312 9316 9320 9324 9328 9332 9336 9340 9344 9348 9352 9356 9360 9364 9368 9372 9376 9380 9384 9388 9392 9396 9400 9404 9408 9412 9416 9420 9424 9428 9432 9436 9440 9444 9448 9452 9456 9460 9464 9468 9472 9476 9480 9484 9488 9492 9496 9500 9504 9508 9512 9516 9520 9524 9528 9532 9536 9540 9544 9548 9552 9556 9560 9564 9568 9572 9576 9580 9584 9588 9592 9596 9600 9604 9608 9612 9616 9620 9624 9628 9632 9636 9640 9644 9648 9652 9656 9660 9664 9668 9672 9676 9680 9684 9688 9692 9696 9700 9704 9708 9712 9716 9720 9724 9728 9732 9736 9740 9744 9748 9752 9756 9760 9764 9768 9772 9776 9780 9784 9788 9792 9796 9800 9804 9808 9812 9816 9820 9824 9828 9832 9836 9840 9844 9848 9852 9856 9860 9864 9868 9872 9876 9880 9884 9888 9892 9896 9900 9904 9908 9912 9916 9920 9924 9928 9932 9936 9940 9944 9948 9952 9956 9960 9964 9968 9972 9976 9980 9984 9988 9992 9996 10000 10004 10008 10012 10016 10020 10024 10028 10032 10036 10040 10044 10048 10052 10056 10060 10064 10068 10072 10076 10080 10084 10088 10092 10096 10100 10104 10108 10112 10116 10120 10124 10128 10132 10136 10140 10144 10148 10152 10156 10160 10164 10168 10172 10176 10180 10184 10188 10192 10196 10200 10204 10208 10212 10216 10220 10224 10228 10232 10236 10240 10244 10248 10252 10256 10260 10264 10268 10272 10276 10280 10284 10288 10292 10296 10300 10304 10308 10312 10316 10320 10324 10328 10332 10336 10340 10344 10348 10352 10356 10360 10364 10368 10372 10376 10380 10384 10388 10392 10396 10400 10404 10408 10412 10416 10420 10424 10428 10432 10436 10440 10444 10448 10452 10456 10460 10464 10468 10472 10476 10480 10484 10488 10492 10496 10500 10504 10508 10512 10516 10520 10524 10528 10532 10536 10540 10544 10548 10552 10556 10560 10564 10568 10572 10576 10580 10584 10588 10592 10596 10600 10604 10608 10612 10616 10620 10624 10628 10632 10636 10640 10644 10648 10652 10656 10660 10664 10668 10672 10676 10680 10684 10688 10692 10696 10700 10704 10708 10712 10716 10720 10724 10728 10732 10736 10740 10744 10748 10752 10756 10760 10764 10768 10772 10776 10780 10784 10788 10792 10796 10800 10804 10808 10812 10816 10820 10824 10828 10832 10836 10840 10844 10848 10852 10856 10860 10864 10868 10872 10876 10880 10884 10888 10892 10896 10900 10904 10908 10912 10916 10920 10924 10928 10932 10936 10940 10944 10948 10952 10956 10960 10964 10968 10972 10976 10980 10984 10988 10992 10996 11000 11004 11008 11012 11016 11020 11024 11028 11032 11036 11040 11044 11048 11052 11056 11060 11064 11068 11072 11076 11080 11084 11088 11092 11096 11100 11104 11108 11112 11116 11120 11124 11128 11132 11136 11140 11144 11148 11152 11156 11160 11164 11168 11172 11176 11180 11184 11188 11192 11196 11200 11204 11208 11212 11216 11220 11224 11228 11232 11236 11240 11244 11248 11252 11256 11260 11264 11268 11272 11276 11280 11284 11288 11292 11296 11300 11304 11308 11312 11316 11320 11324 11328 11332 11336 11340 11344 11348 11352 11356 11360 11364 11368 11372 11376 11380 11384 11388 11392 11396 11400 11404 11408 11412 11416 11420 11424 11428 11432 11436 11440 11444 11448 11452 11456 11460 11464 11468 11472 11476 11480 11484 11488 11492 11496 11500 11504 11508 11512 11516 11520 11524 11528 11532 11536 11540 11544 11548 11552 11556 11560 11564 11568 11572 11576 11580 11584 11588 11592 11596 11600 11604 11608 11612 11616 11620 11624 11628 11632 11636 11640 11644 11648 11652 11656 11660 11664 11668 11672 11676 11680 11684 11688 11692 11696 11700 11704 11708 11712 11716 11720 11724 11728 11732 11736 11740 11744 11748 11752 11756 11760 11764 11768 11772 11776 11780 11784 11788 11792 11796 11800 11804 11808 11812 11816 11820 11824 11828 11832 11836 11840 11844 11848 11852 11856 11860 11864 11868 11872 11876 11880 11884 11888 11892 11896 11900 11904 11908 11912 11916 11920 11924 11928 11932 11936 11940 11944 11948 11952 11956 11960 11964 11968 11972 11976 11980 11984 11988 11992 11996 12000 12004 12008 12012 12016 12020 12024 12028 12032 12036 12040 12044 12048 12052 12056 12060 12064 12068 12072 12076 12080 12084 12088 12092 12096 12100 12104 12108 12112 12116 12120 12124 12128 12132 12136 12140 12144 12148 12152 12156 12160 12164 12168 12172 12176 12180 12184 12188 12192 12196 12200 12204 12208 12212 12216 12220 12224 12228 12232 12236 12240 12244 12248 12252 12256 12260 12264 12268 12272 12276 12280 12284 12288 12292 12296 12300 12304 12308 12312 12316 12320 12324 12328 12332 12336 12340 12344 12348 12352 12356 12360 12364 12368 12372 12376 12380 12384 12388 12392 12396 12400 12404 12408 12412 12416 12420 12424 12428 12432 12436 12440 12444 12448 12452 12456 12460 12464 12468 12472 12476 12480 12484 12488 12492 12496 12500 12504 12508 12512 12516 12520 12524 12528 12532 12536 12540 12544 12548 12552 12556 12560 12564 12568 12572 12576 12580 12584 12588 12592 12596 12600 12604 12608 12612 12616 12620 12624 12628 12632 12636 12640 12644 12648 12652 12656 12660 12664 12668 12672 12676 12680 12684 12688 12692 12696 12700 12704 12708 12712 12716 12720 12724 12728 12732 12736 12740 12744 12748 12752 12756 12760 12764 12768 12772 12776 12780 12784 12788 12792 12796 12800 12804 12808 12812 12816 12820 12824 12828 12832 12836 12840 12844 12848 12852 12856 12860 12864 12868 12872 12876 12880 12884 12888 12892 12896 12900 12904 12908 12912 12916 12920 12924 12928 12932 12936 12940 12944 12948 12952 12956 12960 12964 12968 12972 12976 12980 12984 12988 12992 12996 13000 13004 13008 13012 13016 13020 13024 13028 13032 13036 13040 13044 13048 13052 13056 13060 13064 13068 13072 13076 13080 13084 13088 13092 13096 13100 13104 13108 13112 13116 13120 13124 13128 13132 13136 13140 13144 13148 13152 13156 13160 13164 13168 13172 13176 13180 13184 13188 13192 13196 13200 13204 13208 13212 13216 13220 13224 13228 13232 13236 13240 13244 13248 13252 13256 13260 13264 13268 13272 13276 13280 13284 13288 13292 13296 13300 13304 13308 13312 13316 13320 13324 13328 13332 13336 13340 13344 13348 13352 13356 13360 13364 13368 13372 13376 13380 13384 13388 13392 13396 13400 13404 13408 13412 13416 13420 13424 13428 13432 13436 13440 13444 13448 13452 13456 13460 13464 13468 13472 13476 13480 13484 13488 13492 13496 13500 13504 13508 13512 13516 13520 13524 13528 13532 13536 13540 13544 13548 13552 13556 13560 13564 13568 13572 13576 13580 13584 13588 13592 13596 13600 13604 13608 13612 13616 13620 13624 13628 13632 13636 13640 13644 13648 13652 13656 13660 13664 13668 13672 13676 13680 13684 13688 13692 13696 13700 13704 13708 13712 13716 13720 13724 13728 13732 13736 13740 13744 13748 13752 13756 13760 13764 13768 13772 13776 13780 13784 13788 13792 13796 13800 13804 13808 13812 13816 13820 13824 13828 13832 13836 13840 13844 13848 13852 13856 13860 13864 13868 13872 13876 13880 13884 13888 13892 13896 13900 13904 13908 13912 13916 13920 13924 13928 13932 13936 13940 13944 13948 13952 13956 13960 13964 13968 13972 13976 13980 13984 13988 13992 13996 14000 14004 14008 14012 14016 14020 14024 14028 14032 14036 14040 14044 14048 14052 14056 14060 14064 14068 14072 14076 14080 14084 14088 14092 14096 14100 14104 14108 14112 14116 14120 14124 14128 14132 14136 14140 14144 14148 14152 14156 14160 14164 14168 14172 14176 14180 14184 14188 14192 14196 14200 14204 14208 14212 14216 14220 14224 14228 14232 14236 14240 14244 14248 14252 14256 14260 14264 14268 14272 14276 14280 14284 14288 14292 14296 14300 14304 14308 14312 14316 14320 14324 14328 14332 14336 14340 14344 14348 14352 14356 14360 14364 14368 14372 14376 14380 14384 14388 14392 14396 14400 14404 14408 14412 14416 14420 14424 14428 14432 14436 14440 14444 14448 14452 14456 14460 14464 14468 14472 14476 14480 14484 14488 14492 14496 14500 14504 14508 14512 14516 14520 14524 14528 14532 14536 14540 14544 14548 14552 14556 14560 14564 14568 14572 14576 14580 14584 14588 14592 14596 14600 14604 14608 14612 14616 14620 14624 14628 14632 14636 14640 14644 14648 14652 14656 14660 14664 14668 14672 14676 14680 14684 14688 14692 14696 14700 14704 14708 14712 14716 14720 14724 14728 14732 14736 14740 14744 14748 14752 14756 14760 14764 14768 14772 14776 14780 14784 14788 14792 14796 14800 14804 14808 14812 14816 14820 14824 14828 14832 14836 14840 14844 14848 14852 14856 14860 14864 14868 14872 14876 14880 14884 14888 14892 14896 14900 14904 14908 14912 14916 14920 14924 14928 14932 14936 14940 14944 14948 14952 14956 14960 14964 14968 14972 14976 14980 14984 14988 14992 14996 15000 15004 15008 15012 15016 15020 15024 15028 15032 15036 15040 15044 15048 15052 15056 15060 15064 15068 15072 15076 15080 15084 15088 15092 15096 15100 15104 15108 15112 15116 15120 15124 15128 15132 15136 15140 15144 15148 15152 15156 15160 15164 15168 15172 15176 15180 15184 15188 15192 15196 15200 15204 15208 15212 15216 15220 15224 15228 15232 15236 15240 15244 15248 15252 15256 15260 15264 15268 15272 15276 15280 15284 15288 15292 15296 15300 15304 15308 15312 15316 15320 15324 15328 15332 15336 15340 15344 15348 15352 15356 15360 15364 15368 15372 15376 15380 15384 15388 15392 15396 15400 15404 15408 15412 15416 15420 15424 15428 15432 15436 15440 15444 15448 15452 15456 15460 15464 15468 15472 15476 15480 15484 15488 15492 15496 15500 15504 15508 15512 15516 15520 15524 15528 15532 15536 15540 15544 15548 15552 15556 15560 15564 15568 15572 15576 15580 15584 15588 15592 15596 15600 15604 15608 15612 15616 15620 15624 15628 15632 15636 15640 15644 15648 15652 15656 15660 15664 15668 15672 15676 15680 15684 15688 15692 15696 15700 15704 15708 15712 15716 15720 15724 15728 15732 15736 15740 15744 15748 15752 15756 15760 15764 15768 15772 15776 15780 15784 15788 15792 15796 15800 15804 15808 15812 15816 15820 15824 15828 15832 15836 15840 15844 15848 15852 15856 15860 15864 15868 15872 15876 15880 15884 15888 15892 15896 15900 15904 15908 15912 15916 15920 15924 15928 15932 15936 15940 15944 15948 15952 15956 15960 15964 15968 15972 15976 15980 15984 15988 15992 15996 16000 16004 16008 16012 16016 16020 16024 16028 16032 16036 16040 16044 16048 16052 16056 16060 16064 16068 16072 16076 16080 16084 16088 16092 16096 16100 16104 16108 16112 16116 16120 16124 16128 16132 16136 16140 16144 16148 16152 16156 16160 16164 16168 16172 16176 16180 16184 16188 16192 16196 16200 16204 16208 16212 16216 16220 16224 16228 16232 16236 16240 16244 16248 16252 16256 16260 16264 16268 16272 16276 16280 16284 16288 16292 16296 16300 16304 16308 16312 16316 16320 16324 16328 16332 16336 16340 16344 16348 16352 16356 16360 16364 16368 16372 16376 16380 16384 16388 16392 16396 16400 16404 16408 16412 16416 16420 16424 16428 16432 16436 16440 16444 16448 16452 16456 16460 16464 16468 16472 16476 16480 16484 16488 16492 16496 16500 16504 16508 16512 16516 16520 16524 16528 16532 16536 16540 16544 16548 16552 16556 16560 16564 16568 16572 16576 16580 16584 16588 16592 16596 16600 16604 16608 16612 16616 16620 16624 16628 16632 16636 16640 16644 16648 16652 16656 16660 16664 16668 16672 16676 16680 16684 16688 16692 16696 16700 16704 16708 16712 16716 16720 16724 16728 16732 16736 16740 16744 16748 16752 16756 16760 16764 16768 16772 16776 16780 16784 16788 16792 16796 16800 16804 16808 16812 16816 16820 16824 16828 16832 16836 16840 16844 16848 16852 16856 16860 16864 16868 16872 16876 16880 16884 16888 16892 16896 16900 16904 16908 16912 16916 16920 16924 16928 16932 16936 16940 16944 16948 16952 16956 16960 16964 16968 16972 16976 16980 16984 16988 16992 16996 17000 17004 17008 17012 17016 17020 17024 17028 17032 17036 17040 17044 17048 17052 17056 17060 17064 17068 17072 17076 17080 17084 17088 17092 17096 17100 17104 17108 17112 17116 17120 17124 17128 17132 17136 17140 17144 17148 17152 17156 17160 17164 17168 17172 17176 17180 17184 17188 17192 17196 17200 17204 17208 17212 17216 17220 17224 17228 17232 17236 17240 17244 17248 17252 17256 17260 17264 17268 17272 17276 17280 17284 17288 17292 17296 17300 17304 17308 17312 17316 17320 17324 17328 17332 17336 17340 17344 17348 17352 17356 17360 17364 17368 17372 17376 17380 17384 17388 17392 17396 17400 17404 17408 17412 17416 17420 17424 17428 17432 17436 17440 17444 17448 17452 17456 17460 17464 17468 17472 17476 17480 17484 17488 17492 17496 17500 17504 17508 17512 17516 17520 17524 17528 17532 17536 17540 17544 17548 17552 17556 17560 17564 17568 17572 17576 17580 17584 17588 17592 17596 17600 17604 17608 17612 17616 17620 17624 17628 17632 17636 17640 17644 17648 17652 17656 17660 17664 17668 17672 17676 17680 17684 17688 17692 17696 17700 17704 17708 17712 17716 17720 17724 17728 17732 17736 17740 17744 17748 17752 17756 17760 17764 17768 17772 17776 17780 17784 17788 17792 17796 17800 17804 17808 17812 17816 17820 17824 17828 17832 17836 17840 17844 17848 17852 17856 17860 17864 17868 17872 17876 17880 17884 17888 17892 17896 17900 17904 17908 17912 17916 17920 17924 17928 17932 17936 17940 17944 17948 17952 17956 17960 17964 17968 17972 17976 17980 17984 17988 17992 17996 18000 18004 18008 18012 18016 18020 18024 18028 18032 18036 18040 18044 18048 18052 18056 18060 18064 18068 18072 18076 18080 18084 18088 18092 18096 18100 18104 18108 18112 18116 18120 18124 18128 18132 18136 18140 18144 18148 18152 18156 18160 18164 18168 18172 18176 18180 18184 18188 18192 18196 18200 18204 18208 18212 18216 18220 18224 18228 18232 18236 18240 18244 18248 18252 18256 18260 18264 18268 18272 18276 18280 18284 18288 18292 18296 18300 18304 18308 18312 18316 18320 18324 18328 18332 18336 18340 18344 18348 18352 18356 18360 18364 18368 18372 18376 18380 18384 18388 18392 18396 18400 18404 18408 18412 18416 18420 18424 18428 18432 18436 18440 18444 18448 18452 18456 18460 18464 18468 18472 18476 18480 18484 18488 18492 18496 18500 18504 18508 18512 18516 18520 18524 18528 18532 18536 18540 18544 18548 18552 18556 18560 18564 18568 18572 18576 18580 18584 18588 18592 18596 18600 18604 18608 18612 18616 18620 18624 18628 18632 18636 18640 18644 18648 18652 18656 18660 18664 18668 18672 18676 18680 18684 18688 18692 18696 18700 18704 18708 18712 18716 18720 18724 18728 18732 18736 18740 18744 18748 18752 18756 18760 18764 18768 18772 18776 18780 18784 18788 18792 18796 18800 18804 18808 18812 18816 18820 18824 18828 18832 18836 18840 18844 18848 18852 18856 18860 18864 18868 18872 18876 18880 18884 18888 18892 18896 18900 18904 18908 18912 18916 18920 18924 18928 18932 18936 18940 18944 18948 18952 18956 18960 18964 18968 18972 18976 18980 18984 18988 18992 18996 19000 19004 19008 19012 19016 19020 19024 19028 19032 19036 19040 19044 19048 19052 19056 19060 19064 19068 19072 19076 19080 19084 19088 19092 19096 19100 19104 19108 19112 19116 19120 19124 19128 19132 19136 19140 19144 19148 19152 19156 19160 19164 19168 19172 19176 19180 19184 19188 19192 19196 19200 19204 19208 19212 19216 19220 19224 19228 19232 19236 19240 19244 19248 19252 19256 19260 19264 19268 19272 19276 19280 19284 19288 19292 19296 19300 19304 19308 19312 19316 19320 19324 19328 19332 19336 19340 19344 19348 19352 19356 19360 19364 19368 19372 19376 19380 19384 19388 19392 19396 19400 19404 19408 19412 19416 19420 19424 19428 19432 19436 19440 19444 19448 19452 19456 19460 19464 19468 19472 19476 19480 19484 19488 19492 19496 19500 19504 19508 19512 19516 19520 19524 19528 19532 19536 19540 19544 19548 19552 19556 19560 19564 19568 19572 19576 19580 19584 19588 19592 19596 19600 19604 19608 19612 19616 19620 19624 19628 19632 19636 19640 19644 19648 19652 19656 19660 19664 19668 19672 19676 19680 19684 19688 19692 19696 19700 19704 19708 19712 19716 19720 19724 19728 19732 19736 19740 19744 19748 19752 19756 19760 19764 19768 19772 19776 19780 19784 19788 19792 19796 19800 19804 19808 19812 19816 19820 19824 19828 19832 19836 19840 19844 19848 19852 19856 19860 19864 19868 19872 19876 19880 19884 19888 19892 19896 19900 19904 19908 19912 19916 19920 19924 19928 19932 19936 19940 19944 19948 19952 19956 19960 19964 19968 19972 19976 19980 19984 19988 19992 19996 20000 20004 20008 20012 20016 20020 20024 20028 20032 20036 20040 20044 20048 20052 20056 20060 20064 20068 20072 20076 20080 20084 20088 20092 20096 20100 20104 20108 20112 20116 20120 20124 20128 20132 20136 20140 20144 20148 20152 20156 20160 20164 20168 20172 20176 20180 20184 20188 20192 20196 20200 20204 20208 20212 20216 20220 20224 20228 20232 20236 20240 20244 20248 20252 20256 20260 20264 20268 20272 20276 20280 20284 20288 20292 20296 20300 20304 20308 20312 20316 20320 20324 20328 20332 20336 20340 20344 20348 20352 20356 20360 20364 20368 20372 20376 20380 20384 20388 20392 20396 20400 20404 20408 20412 20416 20420 20424 20428 20432 20436 20440 20444 20448 20452 20456 20460 20464 20468 20472 20476 20480 20484 20488 20492 20496 20500 20504 20508 20512 20516 20520 20524 20528 20532 20536 20540 20544 20548 20552 20556 20560 20564 20568 20572 20576 20580 20584 20588 20592 20596 20600 20604 20608 20612 20616 20620 20624 20628 20632 20636 20640 20644 20648 20652 20656 20660 20664 20668 20672 20676 20680 20684 20688 20692 20696 20700 20704 20708 20712 20716 20720 20724 20728 20732 20736 20740 20744 20748 20752 20756 20760 20764 20768 20772 20776 20780 20784 20788 20792 20796 20800 20804 20808 20812 20816 20820 20824 20828 20832 20836 20840 20844 20848 20852 20856 20860 20864 20868 20872 20876 20880 20884 20888 20892 20896 20900 20904 20908 20912 20916 20920 20924 20928 20932 20936 20940 20944 20948 20952 20956 20960 20964 20968 20972 20976 20980 20984 20988 20992 20996 21000 21004 21008 21012 21016 21020 21024 21028 21032 21036 21040 21044 21048 21052 21056 21060 21064 21068 21072 21076 21080 21084 21088 21092 21096 21100 21104 21108 21112 21116 21120 21124 21128 21132 21136 21140 21144 21148 21152 21156 21160 21164 21168 21172 21176 21180 21184 21188 21192 21196 21200 21204 21208 21212 21216 21220 21224 21228 21232 21236 21240 21244 21248 21252 21256 21260 21264 21268 21272 21276 21280 21284 21288 21292 21296 21300 21304 21308 21312 21316 21320 21324 21328 21332 21336 21340 21344 21348 21352 21356 21360 21364 21368 21372 21376 21380 21384 21388 21392 21396 21400 21404 21408 21412 21416 21420 21424 21428 21432 21436 21440 21444 21448 21452 21456 21460 21464 21468 21472 21476 21480 21484 21488 21492 21496 21500 21504 21508 21512 21516 21520 21524 21528 21532 21536 21540 21544 21548 21552 21556 21560 21564 21568 21572 21576 21580 21584 21588 21592 21596 21600 21604 21608 21612 21616 21620 21624 21628 21632 21636 21640 21644 21648 21652 21656 21660 21664 21668 21672 21676 21680 21684 21688 21692 21696 21700 21704 21708 21712 21716 21720 21724 21728 21732 21736 21740 21744 21748 21752 21756 21760 21764 21768 21772 21776 21780 21784 21788 21792 21796 21800 21804 21808 21812 21816 21820 21824 21828 21832 21836 21840 21844 21848 21852 21856 21860 21864 21868 21872 21876 21880 21884 21888 21892 21896 21900 21904 21908 21912 21916 21920 21924 21928 21932 21936 21940 21944 21948 21952 21956 21960 21964 21968 21972 21976 21980 21984 21988 21992 21996 22000 22004 22008 22012 22016 22020 22024 22028 22032 22036 22040 22044 22048 22052 22056 22060 22064 22068 22072 22076 22080 22084 22088 22092 22096 22100 22104 22108 22112 22116 22120 22124 22128 22132 22136 22140 22144 22148 22152 22156 22160 22164 22168 22172 22176 22180 22184 22188 22192 22196 22200 22204 22208 22212 22216 22220 22224 22228 22232 22236 22240 22244 22248 22252 22256 22260 22264 22268 22272 22276 22280 22284 22288 22292 22296 22300 22304 22308 22312 22316 22320 22324 22328 22332 22336 22340 22344 22348 22352 22356 22360 22364 22368 22372 22376 22380 22384 22388 22392 22396 22400 22404 22408 22412 22416 22420 22424 22428 22432 22436 22440 22444 22448 22452 22456 22460 22464 22468 22472 22476 22480 22484 22488 22492 22496 22500 22504 22508 22512 22516 22520 22524 22528 22532 22536 22540 22544 22548 22552 22556 22560 22564 22568 22572 22576 22580 22584 22588 22592 22596 22600 22604 22608 22612 22616 22620 22624 22628 22632 22636 22640 22644 22648 22652 22656 22660 22664 22668 22672 22676 22680 22684 22688 22692 22696 22700 22704 22708 22712 22716 22720 22724 22728 22732 22736 22740 22744 22748 22752 22756 22760 22764 22768 22772 22776 22780 22784 22788 22792 22796 22800 22804 22808 22812 22816 22820 22824 22828 22832 22836 22840 22844 22848 22852 22856 22860 22864 22868 22872 22876 22880 22884 22888 22892 22896 22900 22904 22908 22912 22916 22920 22924 22928 22932 22936 22940 22944 22948 22952 22956 22960 22964 22968 22972 22976 22980 22984 22988 22992 22996 23000 23004 23008 23012 23016 23020 23024 23028 23032 23036 23040 23044 23048 23052 23056 23060 23064 23068 23072 23076 23080 23084 23088 23092 23096 23100 23104 23108 23112 23116 23120 23124 23128 23132 23136 23140 23144 23148 23152 23156 23160 23164 23168 23172 23176 23180 23184 23188 23192 23196 23200 23204 23208 23212 23216 23220 23224 23228 23232 23236 23240 23244 23248 23252 23256 23260 23264 23268 23272 23276 23280 23284 23288 23292 23296 23300 23304 23308 23312 23316 23320 23324 23328 23332 23336 23340 23344 23348 23352 23356 23360 23364 23368 23372 23376 23380 23384 23388 23392 23396 23400 23404 23408 23412 23416 23420 23424 23428 23432 23436 23440 23444 23448 23452 23456 23460 23464 23468 23472 23476 23480 23484 23488 23492 23496 23500 23504 23508 23512 23516 23520 23524 23528 23532 23536 23540 23544 23548 23552 23556 23560 23564 23568 23572 23576 23580 23584 23588 23592 23596 23600 23604 23608 23612 23616 23620 23624 23628 23632 23636 23640 23644 23648 23652 23656 23660 23664 23668 23672 23676 23680 23684 23688 23692 23696 23700 23704 23708 23712 23716 23720 23724 23728 23732 23736 23740 23744 23748 23752 23756 23760 23764 23768 23772 23776 23780 23784 23788 23792 23796 23800 23804 23808 23812 23816 23820 23824 23828 23832 23836 23840 23844 23848 23852 23856 23860 23864 23868 23872 23876 23880 23884 23888 23892 23896 23900 23904 23908 23912 23916 23920 23924 23928 23932 23936 23940 23944 23948 23952 23956 23960 23964 23968 23972 23976 23980 23984 23988 23992 23996 24000 24004 24008 24012 24016 24020 24024 24028 24032 24036 24040 24044 24048 24052 24056 24060 24064 24068 24072 24076 24080 24084 24088 24092 24096 24100 24104 24108 24112 24116 24120 24124 24128 24132 24136 24140 24144 24148 24152 24156 24160 24164 24168 24172 24176 24180 24184 24188 24192 24196 24200 24204 24208 24212 24216 24220 24224 24228 24232 24236 24240 24244 24248 24252 24256 24260 24264 24268 24272 24276 24280 24284 24288 24292 24296 24300 24304 24308 24312 24316 24320 24324 24328 24332 24336 24340 24344 24348 24352 24356 24360 24364 24368 24372 24376 24380 24384 24388 24392 24396 24400 24404 24408 24412 24416 24420 24424 24428 24432 24436 24440 24444 24448 24452 24456 24460 24464 24468 24472 24476 24480 24484 24488 24492 24496 24500 24504 24508 24512 24516 24520 24524 24528 24532 24536 24540 24544 24548 24552 24556 24560 24564 24568 24572 24576 24580 24584 24588 24592 24596 24600 24604 24608 24612 24616 24620 24624 24628 24632 24636 24640 24644 24648 24652 24656 24660 24664 24668 24672 24676 24680 24684 24688 24692 24696 24700 24704 24708 24712 24716 24720 24724 24728 24732 24736 24740 24744 24748 24752 24756 24760 24764 24768 24772 24776 24780 24784 24788 24792 24796 24800 24804 24808 24812 24816 24820 24824 24828 24832 24836 24840 24844 24848 24852 24856 24860 24864 24868 24872 24876 24880 24884 24888 24892 24896 24900 24904 24908 24912 24916 24920 24924 24928 24932 24936 24940 24944 24948 24952 24956 24960 24964 24968 24972 24976 24980 24984 24988 24992 24996 25000 25004 25008 25012 25016 25020 25024 25028 25032 25036 25040 25044 25048 25052 25056 25060 25064 25068 25072 25076 25080 25084 25088 25092 25096 25100 25104 25108 25112 25116 25120 25124 25128 25132 25136 25140 25144 25148 25152 25156 25160 25164 25168 25172 25176 25180 25184 25188 25192 25196 25200 25204 25208 25212 25216 25220 25224 25228 25232 25236 25240 25244 25248 25252 25256 25260 25264 25268 25272 25276 25280 25284 25288 25292 25296 25300 25304 25308 25312 25316 25320 25324 25328 25332 25336 25340 25344 25348 25352 25356 25360 25364 25368 25372 25376 25380 25384 25388 25392 25396 25400 25404 25408 25412 25416 25420 25424 25428 25432 25436 25440 25444 25448 25452 25456 25460 25464 25468 25472 25476 25480 25484 25488 25492 25496 25500 25504 25508 25512 25516 25520 25524 25528 25532 25536 25540 25544 25548 25552 25556 25560 25564 25568 25572 25576 25580 25584 25588 25592 25596 25600 25604 25608 25612 25616 25620 25624 25628 25632 25636 25640 25644 25648 25652 25656 25660 25664 25668 25672 25676 25680 25684 25688 25692 25696 25700 25704 25708 25712 25716 25720 25724 25728 25732 25736 25740 25744 25748 25752 25756 25760 25764 25768 25772 25776 25780 25784 25788 25792 25796 25800 25804 25808 25812 25816 25820 25824 25828 25832 25836 25840 25844 25848 25852 25856 25860 25864 25868 25872 25876 25880 25884 25888 25892 25896 25900 25904 25908 25912 25916 25920 25924 25928 25932 25936 25940 25944 25948 25952 25956 25960 25964 25968 25972 25976 25980 25984 25988 25992 25996 26000 26004 26008 26012 26016 26020 26024 26028 26032 26036 26040 26044 26048 26052 26056 26060 26064 26068 26072 26076 26080 26084 26088 26092 26096 26100 26104 26108 26112 26116 26120 26124 26128 26132 26136 26140 26144 26148 26152 26156 26160 26164 26168 26172 26176 26180 26184 26188 26192 26196 26200 26204 26208 26212 26216 26220 26224 26228 26232 26236 26240 26244 26248 26252 26256 26260 26264 26268 26272 26276 26280 26284 26288 26292 26296 26300 26304 26308 26312 26316 26320 26324 26328 26332 26336 26340 26344 26348 26352 26356 26360 26364 26368 26372 26376 26380 26384 26388 26392 26396 26400 26404 26408 26412 26416 26420 26424 26428 26432 26436 26440 26444 26448 26452 26456 26460 26464 26468 26472 26476 26480 26484 26488 26492 26496 26500 26504 26508 26512 26516 26520 26524 26528 26532 26536 26540 26544 26548 26552 26556 26560 26564 26568 26572 26576 26580 26584 26588 26592 26596 26600 26604 26608 26612 26616 26620 26624 26628 26632 26636 26640 26644 26648 26652 26656 26660 26664 26668 26672 26676 26680 26684 26688 26692 26696 26700 26704 26708 26712 26716 26720 26724 26728 26732 26736 26740 26744 26748 26752 26756 26760 26764 26768 26772 26776 26780 26784 26788 26792 26796 26800 26804 26808 26812 26816 26820 26824 26828 26832 26836 26840 26844 26848 26852 26856 26860 26864 26868 26872 26876 26880 26884 26888 26892 26896 26900 26904 26908 26912 26916 26920 26924 26928 26932 26936 26940 26944 26948 26952 26956 26960 26964 26968 26972 26976 26980 26984 26988 26992 26996 27000 27004 27008 27012 27016 27020 27024 27028 27032 27036 27040 27044 27048 27052 27056 27060 27064 27068 27072 27076 27080 27084 27088 27092 27096 27100 27104 27108 27112 27116 27120 27124 27128 27132 27136 27140 27144 27148 27152 27156 27160 27164 27168 27172 27176 27180 27184 27188 27192 27196 27200 27204 27208 27212 27216 27220 27224 27228 27232 27236 27240 27244 27248 27252 27256 27260 27264 27268 27272 27276 27280 27284 27288 27292 27296 27300 27304 27308 27312 27316 27320 27324 27328 27332 27336 27340 27344 27348 27352 27356 27360 27364 27368 27372 27376 27380 27384 27388 27392 27396 27400 27404 27408 27412 27416 27420 27424 27428 27432 27436 27440 27444 27448 27452 27456 27460 27464 27468 27472 27476 27480 27484 27488 27492 27496 27500 27504 27508 27512 27516 27520 27524 27528 27532 27536 27540 27544 27548 27552 27556 27560 27564 27568 27572 27576 27580 27584 27588 27592 27596 27600 27604 27608 27612 27616 27620 27624 27628 27632 27636 27640 27644 27648 27652 27656 27660 27664 27668 27672 27676 27680 27684 27688 27692 27696 27700 27704 27708 27712 27716 27720 27724 27728 27732 27736 27740 27744 27748 27752 27756 27760 27764 27768 27772 27776 27780 27784 27788 27792 27796 27800 27804 27808 27812 27816 27820 27824 27828 27832 27836 27840 27844 27848 27852 27856 27860 27864 27868 27872 27876 27880 27884 27888 27892 27896 27900 27904 27908 27912 27916 27920 27924 27928 27932 27936 27940 27944 27948 27952 27956 27960 27964 27968 27972 27976 27980 27984 27988 27992 27996 28000 28004 28008 28012 28016 28020 28024 28028 28032 28036 28040 28044 28048 28052 28056 28060 28064 28068 28072 28076 28080 28084 28088 28092 28096 28100 28104 28108 28112 28116 28120 28124 28128 28132 28136 28140 28144 28148 28152 28156 28160 28164 28168 28172 28176 28180 28184 28188 28192 28196 28200 28204 28208 28212 28216 28220 28224 28228 28232 28236 28240 28244 28248 28252 28256 28260 28264 28268 28272 28276 28280 28284 28288 28292 28296 28300 28304 28308 28312 28316 28320 28324 28328 28332 28336 28340 28344 28348 28352 28356 28360 28364 28368 28372 28376 28380 28384 28388 28392 28396 28400 28404 28408 28412 28416 28420 28424 28428 28432 28436 28440 28444 28448 28452 28456 28460 28464 28468 28472 28476 28480 28484 28488 28492 28496 28500 28504 28508 28512 28516 28520 28524 28528 28532 28536 28540 28544 28548 28552 28556 28560 28564 28568 28572 28576 28580 28584 28588 28592 28596 28600 28604 28608 28612 28616 28620 28624 28628 28632 28636 28640 28644 28648 28652 28656 28660 28664 28668 28672 28676 28680 28684 28688 28692 28696 28700 28704 28708 28712 28716 28720 28724 28728 28732 28736 28740 28744 28748 28752 28756 28760 28764 28768 28772 28776 28780 28784 28788 28792 28796 28800 28804 28808 28812 28816 28820 28824 28828 28832 28836 28840 28844 28848 28852 28856 28860 28864 28868 28872 28876 28880 28884 28888 28892 28896 28900 28904 28908 28912 28916 28920 28924 28928 28932 28936 28940 28944 28948 28952 28956 28960 28964 28968 28972 28976 28980 28984 28988 28992 28996 29000 29004 29008 29012 29016 29020 29024 29028 29032 29036 29040 29044 29048 29052 29056 29060 29064 29068 29072 29076 29080 29084 29088 29092 29096 29100 29104 29108 29112 29116 29120 29124 29128 29132 29136 29140 29144 29148 29152 29156 29160 29164 29168 29172 29176 29180 29184 29188 29192 29196 29200 29204 29208 29212 29216 29220 29224 29228 29232 29236 29240 29244 29248 29252 29256 29260 29264 29268 29272 29276 29280 29284 29288 29292 29296 29300 29304 29308 29312 29316 29320 29324 29328 29332 29336 29340 29344 29348 29352 29356 29360 29364 29368 29372 29376 29380 29384 29388 29392 29396 29400 29404 29408 29412 29416 29420 29424 29428 29432 29436 29440 29444 29448 29452 29456 29460 29464 29468 29472 29476 29480 29484 29488 29492 29496 29500 29504 29508 29512 29516 29520 29524 29528 29532 29536 29540 29544 29548 29552 29556 29560 29564 29568 29572 29576 29580 29584 29588 29592 29596 29600 29604 29608 29612 29616 29620 29624 29628 29632 29636 29640 29644 29648 29652 29656 29660 29664 29668 29672 29676 29680 29684 29688 29692 29696 29700 29704 29708 29712 29716 29720 29724 29728 29732 29736 29740 29744 29748 29752 29756 29760 29764 29768 29772 29776 29780 29784 29788 29792 29796 29800 29804 29808 29812 29816 29820 29824 29828 29832 29836 29840 29844 29848 29852 29856 29860 29864 29868 29872 29876 29880 29884 29888 29892 29896 29900 29904 29908 29912 29916 29920 29924 29928 29932 29936 29940 29944 29948 29952 29956 29960 29964 29968 29972 29976 29980 29984 29988 29992 29996 30000 30004 30008 30012 30016 30020 30024 30028 30032 30036 30040 30044 30048 30052 30056 30060 30064 30068 30072 30076 30080 30084 30088 30092 30096 30100 30104 30108 30112 30116 30120 30124 30128 30132 30136 30140 30144 30148 30152 30156 30160 30164 30168 30172 30176 30180 30184 30188 30192 30196 30200 30204 30208 30212 30216 30220 30224 30228 30232 30236 30240 30244 30248 30252 30256 30260 30264 30268 30272 30276 30280 30284 30288 30292 30296 30300 30304 30308 30312 30316 30320 30324 30328 30332 30336 30340 30344 30348 30352 30356 30360 30364 30368 30372 30376 30380 30384 30388 30392 30396 30400 30404 30408 30412 30416 30420 30424 30428 30432 30436 30440 30444 30448 30452 30456 30460 30464 30468 30472 30476 30480 30484 30488 30492 30496 30500 30504 30508 30512 30516 30520 30524 30528 30532 30536 30540 30544 30548 30552 30556 30560 30564 30568 30572 30576 30580 30584 30588 30592 30596 30600 30604 30608 30612 30616 30620 30624 30628 30632 30636 30640 30644 30648 30652 30656 30660 30664 30668 30672 30676 30680 30684 30688 30692 30696 30700 30704 30708 30712 30716 30720 30724 30728 30732 30736 30740 30744 30748 30752 30756 30760 30764 30768 30772 30776 30780 30784 30788 30792 30796 30800 30804 30808 30812 30816 30820 30824 30828 30832 30836 30840 30844 30848 30852 30856 30860 30864 30868 30872 30876 30880 30884 30888 30892 30896 30900 30904 30908 30912 30916 30920 30924 30928 30932 30936 30940 30944 30948 30952 30956 30960 30964 30968 30972 30976 30980 30984 30988 30992 30996 31000 31004 31008 31012 31016 31020 31024 31028 31032 31036 31040 31044 31048 31052 31056 31060 31064 31068 31072 31076 31080 31084 31088 31092 31096 31100 31104 31108 31112 31116 31120 31124 31128 31132 31136 31140 31144 31148 31152 31156 31160 31164 31168 31172 31176 31180 31184 31188 31192 31196 31200 31204 31208 31212 31216 31220 31224 31228 31232 31236 31240 31244 31248 31252 31256 31260 31264 31268 31272 31276 31280 31284 31288 31292 31296 31300 31304 31308 31312 31316 31320 31324 31328 31332 31336 31340 31344 31348 31352 31356 31360 31364 31368 31372 31376 31380 31384 31388 31392 31396 31400 31404 31408 31412 31416 31420 31424 31428 31432 31436 31440 31444 31448 31452 31456 31460 31464 31468 31472 31476 31480 31484 31488 31492 31496 31500 31504 31508 31512 31516 31520 31524 31528 31532 31536 31540 31544 31548 31552 31556 31560 31564 31568 31572 31576 31580 31584 31588 31592 31596 31600 31604 31608 31612 31616 31620 31624 31628 31632 31636 31640 31644 31648 31652 31656 31660 31664 31668 31672 31676 31680 31684 31688 31692 31696 31700 31704 31708 31712 31716 31720 31724 31728 31732 31736 31740 31744 31748 31752 31756 31760 31764 31768 31772 31776 31780 31784 31788 31792 31796 31800 31804 31808 31812 31816 31820 31824 31828 31832 31836 31840 31844 31848 31852 31856 31860 31864 31868 31872 31876 31880 31884 31888 31892 31896 31900 31904 31908 31912 31916 31920 31924 31928 31932 31936 31940 31944 31948 31952 31956 31960 31964 31968 31972 31976 31980 31984 31988 31992 31996 32000 32004 32008 32012 32016 32020 32024 32028 32032 32036 32040 32044 32048 32052 32056 32060 32064 32068 32072 32076 32080 32084 32088 32092 32096 32100 32104 32108 32112 32116 32120 32124 32128 32132 32136 32140 32144 32148 32152 32156 32160 32164 32168 32172 32176 32180 32184 32188 32192 32196 32200 32204 32208 32212 32216 32220 32224 32228 32232 32236 32240 32244 32248 32252 32256 32260 32264 32268 32272 32276 32280 32284 32288 32292 32296 32300 32304 32308 32312 32316 32320 32324 32328 32332 32336 32340 32344 32348 32352 32356 32360 32364 32368 32372 32376 32380 32384 32388 32392 32396 32400 32404 32408 32412 32416 32420 32424 32428 32432 32436 32440 32444 32448 32452 32456 32460 32464 32468 32472 32476 32480 32484 32488 32492 32496 32500 32504 32508 32512 32516 32520 32524 32528 32532 32536 32540 32544 32548 32552 32556 32560 32564 32568 32572 32576 32580 32584 32588 32592 32596 32600 32604 32608 32612 32616 32620 32624 32628 32632 32636 32640 32644 32648 32652 32656 32660 32664 32668 32672 32676 32680 32684 32688 32692 32696 32700 32704 32708 32712 32716 32720 32724 32728 32732 32736 32740 32744 32748 32752 32756 32760 32764 32768 32772 32776 32780 32784 32788 32792 32796 32800 32804 32808 32812 32816 32820 32824 32828 32832 32836 32840 32844 32848 32852 32856 32860 32864 32868 32872 32876 32880 32884 32888 32892 32896 32900 32904 32908 32912 32916 32920 32924 32928 32932 32936 32940 32944 32948 32952 32956 32960 32964 32968 32972 32976 32980 32984 32988 32992 32996 33000 33004 33008 33012 33016 33020 33024 33028 33032 33036 33040 33044 33048 33052 33056 33060 33064 33068 33072 33076 33080 33084 33088 33092 33096 33100 33104 33108 33112 33116 33120 33124 33128 33132 33136 33140 33144 33148 33152 33156 33160 33164 33168 33172 33176 33180 33184 33188 33192 33196 33200 33204 33208 33212 33216 33220 33224 33228 33232 33236 33240 33244 33248 33252 33256 33260 33264 33268 33272 33276 33280 33284 33288 33292 33296 33300 33304 33308 33312 33316 33320 33324 33328 33332 33336 33340 33344 33348 33352 33356 33360 33364 33368 33372 33376 33380 33384 33388 33392 33396 33400 33404 33408 33412 33416 33420 33424 33428 33432 33436 33440 33444 33448 33452 33456 33460 33464 33468 33472 33476 33480 33484 33488 33492 33496 33500 33504 33508 33512 33516 33520 33524 33528 33532 33536 33540 33544 33548 33552 33556 33560 33564 33568 33572 33576 33580 33584 33588 33592 33596 33600 33604 33608 33612 33616 33620 33624 33628 33632 33636 33640 33644 33648 33652 33656 33660 33664 33668 33672 33676 33680 33684 33688 33692 33696 33700 33704 33708 33712 33716 33720 33724 33728 33732 33736 33740 33744 33748 33752 33756 33760 33764 33768 33772 33776 33780 33784 33788 33792 33796 33800 33804 33808 33812 33816 33820 33824 33828 33832 33836 33840 33844 33848 33852 33856 33860 33864 33868 33872 33876 33880 33884 33888 33892 33896 33900 33904 33908 33912 33916 33920 33924 33928 33932 33936 33940 33944 33948 33952 33956 33960 33964 33968 33972 33976 33980 33984 33988 33992 33996 34000 34004 34008 34012 34016 34020 34024 34028 34032 34036 34040 34044 34048 34052 34056 34060 34064 34068 34072 34076 34080 34084 34088 34092 34096 34100 34104 34108 34112 34116 34120 34124 34128 34132 34136 34140 34144 34148 34152 34156 34160 34164 34168 34172 34176 34180 34184 34188 34192 34196 34200 34204 34208 34212 34216 34220 34224 34228 34232 34236 34240 34244 34248 34252 34256 34260 34264 34268 34272 34276 34280 34284 34288 34292 34296 34300 34304 34308 34312 34316 34320 34324 34328 34332 34336 34340 34344 34348 34352 34356 34360 34364 34368 34372 34376 34380 34384 34388 34392 34396 34400 34404 34408 34412 34416 34420 34424 34428 34432 34436 34440 34444 34448 34452 34456 34460 34464 34468 34472 34476 34480 34484 34488 34492 34496 34500 34504 34508 34512 34516 34520 34524 34528 34532 34536 34540 34544 34548 34552 34556 34560 34564 34568 34572 34576 34580 34584 34588 34592 34596 34600 34604 34608 34612 34616 34620 34624 34628 34632 34636 34640 34644 34648 34652 34656 34660 34664 34668 34672 34676 34680 34684 34688 34692 34696 34700 34704 34708 34712 34716 34720 34724 34728 34732 34736 34740 34744 34748 34752 34756 34760 34764 34768 34772 34776 34780 34784 34788 34792 34796 34800 34804 34808 34812 34816 34820 34824 34828 34832 34836 34840 34844 34848 34852 34856 34860 34864 34868 34872 34876 34880 34884 34888 34892 34896 34900 34904 34908 34912 34916 34920 34924 34928 34932 34936 34940 34944 34948 34952 34956 34960 34964 34968 34972 34976 34980 34984 34988 34992 34996 35000 35004 35008 35012 35016 35020 35024 35028 35032 35036 35040 35044 35048 35052 35056 35060 35064 35068 35072 35076 35080 35084 35088 35092 35096 35100 35104 35108 35112 35116 35120 35124 35128 35132 35136 35140 35144 35148 35152 35156 35160 35164 35168 35172 35176 35180 35184 35188 35192 35196 35200 35204 35208 35212 35216 35220 35224 35228 35232 35236 35240 35244 35248 35252 35256 35260 35264 35268 35272 35276 35280 35284 35288 35292 35296 35300 35304 35308 35312 35316 35320 35324 35328 35332 35336 35340 35344 35348 35352 35356 35360 35364 35368 35372 35376 35380 35384 35388 35392 35396 35400 35404 35408 35412 35416 35420 35424 35428 35432 35436 35440 35444 35448 35452 35456 35460 35464 35468 35472 35476 35480 35484 35488 35492 35496 35500 35504 35508 35512 35516 35520 35524 35528 35532 35536 35540 35544 35548 35552 35556 35560 35564 35568 35572 35576 35580 35584 35588 35592 35596 35600 35604 35608 35612 35616 35620 35624 35628 35632 35636 35640 35644 35648 35652 35656 35660 35664 35668 35672 35676 35680 35684 35688 35692 35696 35700 35704 35708 35712 35716 35720 35724 35728 35732 35736 35740 35744 35748 35752 35756 35760 35764 35768 35772 35776 35780 35784 35788 35792 35796 35800 35804 35808 35812 35816 35820 35824 35828 35832 35836 35840 35844 35848 35852 35856 35860 35864 35868 35872 35876 35880 35884 35888 35892 35896 35900 35904 35908 35912 35916 35920 35924 35928 35932 35936 35940 35944 35948 35952 35956 35960 35964 35968 35972 35976 35980 35984 35988 35992 35996 36000 36004 36008 36012 36016 36020 36024 36028 36032 36036 36040 36044 36048 36052 36056 36060 36064 36068 36072 36076 36080 36084 36088 36092 36096 36100 36104 36108 36112 36116 36120 36124 36128 36132 36136 36140 36144 36148 36152 36156 36160 36164 36168 36172 36176 36180 36184 36188 36192 36196 36200 36204 36208 36212 36216 36220 36224 36228 36232 36236 36240 36244 36248 36252 36256 36260 36264 36268 36272 36276 36280 36284 36288 36292 36296 36300 36304 36308 36312 36316 36320 36324 36328 36332 36336 36340 36344 36348 36352 36356 36360 36364 36368 36372 36376 36380 36384 36388 36392 36396 36400 36404 36408 36412 36416 36420 36424 36428 36432 36436 36440 36444 36448 36452 36456 36460 36464 36468 36472 36476 36480 36484 36488 36492 36496 36500 36504 36508 36512 36516 36520 36524 36528 36532 36536 36540 36544 36548 36552 36556 36560 36564 36568 36572 36576 36580 36584 36588 36592 36596 36600 36604 36608 36612 36616 36620 36624 36628 36632 36636 36640 36644 36648 36652 36656 36660 36664 36668 36672 36676 36680 36684 36688 36692 36696 36700 36704 36708 36712 36716 36720 36724 36728 36732 36736 36740 36744 36748 36752 36756 36760 36764 36768 36772 36776 36780 36784 36788 36792 36796 36800 36804 36808 36812 36816 36820 36824 36828 36832 36836 36840 36844 36848 36852 36856 36860 36864 36868 36872 36876 36880 36884 36888 36892 36896 36900 36904 36908 36912 36916 36920 36924 36928 36932 36936 36940 36944 36948 36952 36956 36960 36964 36968 36972 36976 36980 36984 36988 36992 36996 37000 37004 37008 37012 37016 37020 37024 37028 37032 37036 37040 37044 37048 37052 37056 37060 37064 37068 37072 37076 37080 37084 37088 37092 37096 37100 37104 37108 37112 37116 37120 37124 37128 37132 37136 37140 37144 37148 37152 37156 37160 37164 37168 37172 37176 37180 37184 37188 37192 37196 37200 37204 37208 37212 37216 37220 37224 37228 37232 37236 37240 37244 37248 37252 37256 37260 37264 37268 37272 37276 37280 37284 37288 37292 37296 37300 37304 37308 37312 37316 37320 37324 37328 37332 37336 37340 37344 37348 37352 37356 37360 37364 37368 37372 37376 37380 37384 37388 37392 37396 37400 37404 37408 37412 37416 37420 37424 37428 37432 37436 37440 37444 37448 37452 37456 37460 37464 37468 37472 37476 37480 37484 37488 37492 37496 37500 37504 37508 37512 37516 37520 37524 37528 37532 37536 37540 37544 37548 37552 37556 37560 37564 37568 37572 37576 37580 37584 37588 37592 37596 37600 37604 37608 37612 37616 37620 37624 37628 37632 37636 37640 37644 37648 37652 37656 37660 37664 37668 37672 37676 37680 37684 37688 37692 37696 37700 37704 37708 37712 37716 37720 37724 37728 37732 37736 37740 37744 37748 37752 37756 37760 37764 37768 37772 37776 37780 37784 37788 37792 37796 37800 37804 37808 37812 37816 37820 37824 37828 37832 37836 37840 37844 37848 37852 37856 37860 37864 37868 37872 37876 37880 37884 37888 37892 37896 37900 37904 37908 37912 37916 37920 37924 37928 37932 37936 37940 37944 37948 37952 37956 37960 37964 37968 37972 37976 37980 37984 37988 37992 37996 38000 38004 38008 38012 38016 38020 38024 38028 38032 38036 38040 38044 38048 38052 38056 38060 38064 38068 38072 38076 38080 38084 38088 38092 38096 38100 38104 38108 38112 38116 38120 38124 38128 38132 38136 38140 38144 38148 38152 38156 38160 38164 38168 38172 38176 38180 38184 38188 38192 38196 38200 38204 38208 38212 38216 38220 38224 38228 38232 38236 38240 38244 38248 38252 38256 38260 38264 38268 38272 38276 38280 38284 38288 38292 38296 38300 38304 38308 38312 38316 38320 38324 38328 38332 38336 38340 38344 38348 38352 38356 38360 38364 38368 38372 38376 38380 38384 38388 38392 38396 38400 38404 38408 38412 38416 38420 38424 38428 38432 38436 38440 38444 38448 38452 38456 38460 38464 38468 38472 38476 38480 38484 38488 38492 38496 38500 38504 38508 38512 38516 38520 38524 38528 38532 38536 38540 38544 38548 38552 38556 38560 38564 38568 38572 38576 38580 38584 38588 38592 38596 38600 38604 38608 38612 38616 38620 38624 38628 38632 38636 38640 38644 38648 38652 38656 38660 38664 38668 38672 38676 38680 38684 38688 38692 38696 38700 38704 38708 38712 38716 38720 38724 38728 38732 38736 38740 38744 38748 38752 38756 38760 38764 38768 38772 38776 38780 38784 38788 38792 38796 38800 38804 38808 38812 38816 38820 38824 38828 38832 38836 38840 38844 38848 38852 38856 38860 38864 38868 38872 38876 38880 38884 38888 38892 38896 38900 38904 38908 38912 38916 38920 38924 38928 38932 38936 38940 38944 38948 38952 38956 38960 38964 38968 38972 38976 38980 38984 38988 38992 38996 39000 39004 39008 39012 39016 39020 39024 39028 39032 39036 39040 39044 39048 39052 39056 39060 39064 39068 39072 39076 39080 39084 39088 39092 39096 39100 39104 39108 39112 39116 39120 39124 39128 39132 39136 39140 39144 39148 39152 39156 39160 39164 39168 39172 39176 39180 39184 39188 39192 39196 39200 39204 39208 39212 39216 39220 39224 39228 39232 39236 39240 39244 39248 39252 39256 39260 39264 39268 39272 39276 39280 39284 39288 39292 39296 39300 39304 39308 39312 39316 39320 39324 39328 39332 39336 39340 39344 39348 39352 39356 39360 39364 39368 39372 39376 39380 39384 39388 39392 39396 39400 39404 39408 39412 39416 39420 39424 39428 39432 39436 39440 39444 39448 39452 39456 39460 39464 39468 39472 39476 39480 39484 39488 39492 39496 39500 39504 39508 39512 39516 39520 39524 39528 39532 39536 39540 39544 39548 39552 39556 39560 39564 39568 39572 39576 39580 39584 39588 39592 39596 39600 39604 39608 39612 39616 39620 39624 39628 39632 39636 39640 39644 39648 39652 39656 39660 39664 39668 39672 39676 39680 39684 39688 39692 39696 39700 39704 39708 39712 39716 39720 39724 39728 39732 39736 39740 39744 39748 39752 39756 39760 39764 39768 39772 39776 39780 39784 39788 39792 39796 39800 39804 39808 39812 39816 39820 39824 39828 39832 39836 39840 39844 39848 39852 39856 39860 39864 39868 39872 39876 39880 39884 39888 39892 39896 39900 39904 39908 39912 39916 39920 39924 39928 39932 39936 39940 39944 39948 39952 39956 39960 39964 39968 39972 39976 39980 39984 39988 39992 39996 40000 40004 40008 40012 40016 40020 40024 40028 40032 40036 40040 40044 40048 40052 40056 40060 40064 40068 40072 40076 40080 40084 40088 40092 40096 40100 40104 40108 40112 40116 40120 40124 40128 40132 40136 40140 40144 40148 40152 40156 40160 40164 40168 40172 40176 40180 40184 40188 40192 40196 40200 40204 40208 40212 40216 40220 40224 40228 40232 40236 40240 40244 40248 40252 40256 40260 40264 40268 40272 40276 40280 40284 40288 40292 40296 40300 40304 40308 40312 40316 40320 40324 40328 40332 40336 40340 40344 40348 40352 40356 40360 40364 40368 40372 40376 40380 40384 40388 40392 40396 40400 40404 40408 40412 40416 40420 40424 40428 40432 40436 40440 40444 40448 40452 40456 40460 40464 40468 40472 40476 40480 40484 40488 40492 40496 40500 40504 40508 40512 40516 40520 40524 40528 40532 40536 40540 40544 40548 40552 40556 40560 40564 40568 40572 40576 40580 40584 40588 40592 40596 40600 40604 40608 40612 40616 40620 40624 40628 40632 40636 40640 40644 40648 40652 40656 40660 40664 40668 40672 40676 40680 40684 40688 40692 40696 40700 40704 40708 40712 40716 40720 40724 40728 40732 40736 40740 40744 40748 40752 40756 40760 40764 40768 40772 40776 40780 40784 40788 40792 40796 40800 40804 40808 40812 40816 40820 40824 40828 40832 40836 40840 40844 40848 40852 40856 40860 40864 40868 40872 40876 40880 40884 40888 40892 40896 40900 40904 40908 40912 40916 40920 40924 40928 40932 40936 40940 40944 40948 40952 40956 40960 40964 </DataArray>
<DataArray  type="UInt8"  Name="types"  format="ascii">10 10 10 10 10 10 10 10 10 10 10 10 10 10 10 10 10 10 10 10 10 10 10 10 10 10 10 10 10 10 10 10 10 10 10 10 10 10 10 10 10 10 10 10 10 10 10 10 10 10 10 10 10 10 10 10 10 10 10 10 10 10 10 10 10 10 10 10 10 10 10 10 10 10 10 10 10 10 10 10 10 10 10 10 10 10 10 10 10 10 10 10 10 10 10 10 10 10 10 10 10 10 10 10 10 10 10 10 10 10 10 10 10 10 10 10 10 10 10 10 10 10 10 10 10 10 10 10 10 10 10 10 10 10 10 10 10 10 10 10 10 10 10 10 10 10 10 10 10 10 10 10 10 10 10 10 10 10 10 10 10 10 10 10 10 10 10 10 10 10 10 10 10 10 10 10 10 10 10 10 10 10 10 10 10 10 10 10 10 10 10 10 10 10 10 10 10 10 10 10 10 10 10 10 10 10 10 10 10 10 10 10 10 10 10 10 10 10 10 10 10 10 10 10 10 10 10 10 10 10 10 10 10 10 10 10 10 10 10 10 10 10 10 10 10 10 10 10 10 10 10 10 10 10 10 10 10 10 10 10 10 10 10 10 10 10 10 10 10 10 10 10 10 10 10 10 10 10 10 10 10 10 10 10 10 10 10 10 10 10 10 10 10 10 10 10 10 10 10 10 10 10 10 10 10 10 10 10 10 10 10 10 10 10 10 10 10 10 10 10 10 10 10 10 10 10 10 10 10 10 10 10 10 10 10 10 10 10 10 10 10 10 10 10 10 10 10 10 10 10 10 10 10 10 10 10 10 10 10 10 10 10 10 10 10 10 10 10 10 10 10 10 10 10 10 10 10 10 10 10 10 10 10 10 10 10 10 10 10 10 10 10 10 10 10 10 10 10 10 10 10 10 10 10 10 10 10 10 10 10 10 10 10 10 10 10 10 10 10 10 10 10 10 10 10 10 10 10 10 10 10 10 10 10 10 10 10 10 10 10 10 10 10 10 10 10 10 10 10 10 10 10 10 10 10 10 10 10 10 10 10 10 10 10 10 10 10 10 10 10 10 10 10 10 10 10 10 10 10 10 10 10 10 10 10 10 10 10 10 10 10 10 10 10 10 10 10 10 10 10 10 10 10 10 10 10 10 10 10 10 10 10 10 10 10 10 10 10 10 10 10 10 10 10 10 10 10 10 10 10 10 10 10 10 10 10 10 10 10 10 10 10 10 10 10 10 10 10 10 10 10 10 10 10 10 10 10 10 10 10 10 10 10 10 10 10 10 10 10 10 10 10 10 10 10 10 10 10 10 10 10 10 10 10 10 10 10 10 10 10 10 10 10 10 10 10 10 10 10 10 10 10 10 10 10 10 10 10 10 10 10 10 10 10 10 10 10 10 10 10 10 10 10 10 10 10 10 10 10 10 10 10 10 10 10 10 10 10 10 10 10 10 10 10 10 10 10 10 10 10 10 10 10 10 10 10 10 10 10 10 10 10 10 10 10 10 10 10 10 10 10 10 10 10 10 10 10 10 10 10 10 10 10 10 10 10 10 10 10 10 10 10 10 10 10 10 10 10 10 10 10 10 10 10 10 10 10 10 10 10 10 10 10 10 10 10 10 10 10 10 10 10 10 10 10 10 10 10 10 10 10 10 10 10 10 10 10 10 10 10 10 10 10 10 10 10 10 10 10 10 10 10 10 10 10 10 10 10 10 10 10 10 10 10 10 10 10 10 10 10 10 10 10 10 10 10 10 10 10 10 10 10 10 10 10 10 10 10 10 10 10 10 10 10 10 10 10 10 10 10 10 10 10 10 10 10 10 10 10 10 10 10 10 10 10 10 10 10 10 10 10 10 10 10 10 10 10 10 10 10 10 10 10 10 10 10 10 10 10 10 10 10 10 10 10 10 10 10 10 10 10 10 10 10 10 10 10 10 10 10 10 10 10 10 10 10 10 10 10 10 10 10 10 10 10 10 10 10 10 10 10 10 10 10 10 10 10 10 10 10 10 10 10 10 10 10 10 10 10 10 10 10 10 10 10 10 10 10 10 10 10 10 10 10 10 10 10 10 10 10 10 10 10 10 10 10 10 10 10 10 10 10 10 10 10 10 10 10 10 10 10 10 10 10 10 10 10 10 10 10 10 10 10 10 10 10 10 10 10 10 10 10 10 10 10 10 10 10 10 10 10 10 10 10 10 10 10 10 10 10 10 10 10 10 10 10 10 10 10 10 10 10 10 10 10 10 10 10 10 10 10 10 10 10 10 10 10 10 10 10 10 10 10 10 10 10 10 10 10 10 10 10 10 10 10 10 10 10 10 10 10 10 10 10 10 10 10 10 10 10 10 10 10 10 10 10 10 10 10 10 10 10 10 10 10 10 10 10 10 10 10 10 10 10 10 10 10 10 10 10 10 10 10 10 10 10 10 10 10 10 10 10 10 10 10 10 10 10 10 10 10 10 10 10 10 10 10 10 10 10 10 10 10 10 10 10 10 10 10 10 10 10 10 10 10 10 10 10 10 10 10 10 10 10 10 10 10 10 10 10 10 10 10 10 10 10 10 10 10 10 10 10 10 10 10 10 10 10 10 10 10 10 10 10 10 10 10 10 10 10 10 10 10 10 10 10 10 10 10 10 10 10 10 10 10 10 10 10 10 10 10 10 10 10 10 10 10 10 10 10 10 10 10 10 10 10 10 10 10 10 10 10 10 10 10 10 10 10 10 10 10 10 10 10 10 10 10 10 10 10 10 10 10 10 10 10 10 10 10 10 10 10 10 10 10 10 10 10 10 10 10 10 10 10 10 10 10 10 10 10 10 10 10 10 10 10 10 10 10 10 10 10 10 10 10 10 10 10 10 10 10 10 10 10 10 10 10 10 10 10 10 10 10 10 10 10 10 10 10 10 10 10 10 10 10 10 10 10 10 10 10 10 10 10 10 10 10 10 10 10 10 10 10 10 10 10 10 10 10 10 10 10 10 10 10 10 10 10 10 10 10 10 10 10 10 10 10 10 10 10 10 10 10 10 10 10 10 10 10 10 10 10 10 10 10 10 10 10 10 10 10 10 10 10 10 10 10 10 10 10 10 10 10 10 10 10 10 10 10 10 10 10 10 10 10 10 10 10 10 10 10 10 10 10 10 10 10 10 10 10 10 10 10 10 10 10 10 10 10 10 10 10 10 10 10 10 10 10 10 10 10 10 10 10 10 10 10 10 10 10 10 10 10 10 10 10 10 10 10 10 10 10 10 10 10 10 10 10 10 10 10 10 10 10 10 10 10 10 10 10 10 10 10 10 10 10 10 10 10 10 10 10 10 10 10 10 10 10 10 10 10 10 10 10 10 10 10 10 10 10 10 10 10 10 10 10 10 10 10 10 10 10 10 10 10 10 10 10 10 10 10 10 10 10 10 10 10 10 10 10 10 10 10 10 10 10 10 10 10 10 10 10 10 10 10 10 10 10 10 10 10 10 10 10 10 10 10 10 10 10 10 10 10 10 10 10 10 10 10 10 10 10 10 10 10 10 10 10 10 10 10 10 10 10 10 10 10 10 10 10 10 10 10 10 10 10 10 10 10 10 10 10 10 10 10 10 10 10 10 10 10 10 10 10 10 10 10 10 10 10 10 10 10 10 10 10 10 10 10 10 10 10 10 10 10 10 10 10 10 10 10 10 10 10 10 10 10 10 10 10 10 10 10 10 10 10 10 10 10 10 10 10 10 10 10 10 10 10 10 10 10 10 10 10 10 10 10 10 10 10 10 10 10 10 10 10 10 10 10 10 10 10 10 10 10 10 10 10 10 10 10 10 10 10 10 10 10 10 10 10 10 10 10 10 10 10 10 10 10 10 10 10 10 10 10 10 10 10 10 10 10 10 10 10 10 10 10 10 10 10 10 10 10 10 10 10 10 10 10 10 10 10 10 10 10 10 10 10 10 10 10 10 10 10 10 10 10 10 10 10 10 10 10 10 10 10 10 10 10 10 10 10 10 10 10 10 10 10 10 10 10 10 10 10 10 10 10 10 10 10 10 10 10 10 10 10 10 10 10 10 10 10 10 10 10 10 10 10 10 10 10 10 10 10 10 10 10 10 10 10 10 10 10 10 10 10 10 10 10 10 10 10 10 10 10 10 10 10 10 10 10 10 10 10 10 10 10 10 10 10 10 10 10 10 10 10 10 10 10 10 10 10 10 10 10 10 10 10 10 10 10 10 10 10 10 10 10 10 10 10 10 10 10 10 10 10 10 10 10 10 10 10 10 10 10 10 10 10 10 10 10 10 10 10 10 10 10 10 10 10 10 10 10 10 10 10 10 10 10 10 10 10 10 10 10 10 10 10 10 10 10 10 10 10 10 10 10 10 10 10 10 10 10 10 10 10 10 10 10 10 10 10 10 10 10 10 10 10 10 10 10 10 10 10 10 10 10 10 10 10 10 10 10 10 10 10 10 10 10 10 10 10 10 10 10 10 10 10 10 10 10 10 10 10 10 10 10 10 10 10 10 10 10 10 10 10 10 10 10 10 10 10 10 10 10 10 10 10 10 10 10 10 10 10 10 10 10 10 10 10 10 10 10 10 10 10 10 10 10 10 10 10 10 10 10 10 10 10 10 10 10 10 10 10 10 10 10 10 10 10 10 10 10 10 10 10 10 10 10 10 10 10 10 10 10 10 10 10 10 10 10 10 10 10 10 10 10 10 10 10 10 10 10 10 10 10 10 10 10 10 10 10 10 10 10 10 10 10 10 10 10 10 10 10 10 10 10 10 10 10 10 10 10 10 10 10 10 10 10 10 10 10 10 10 10 10 10 10 10 10 10 10 10 10 10 10 10 10 10 10 10 10 10 10 10 10 10 10 10 10 10 10 10 10 10 10 10 10 10 10 10 10 10 10 10 10 10 10 10 10 10 10 10 10 10 10 10 10 10 10 10 10 10 10 10 10 10 10 10 10 10 10 10 10 10 10 10 10 10 10 10 10 10 10 10 10 10 10 10 10 10 10 10 10 10 10 10 10 10 10 10 10 10 10 10 10 10 10 10 10 10 10 10 10 10 10 10 10 10 10 10 10 10 10 10 10 10 10 10 10 10 10 10 10 10 10 10 10 10 10 10 10 10 10 10 10 10 10 10 10 10 10 10 10 10 10 10 10 10 10 10 10 10 10 10 10 10 10 10 10 10 10 10 10 10 10 10 10 10 10 10 10 10 10 10 10 10 10 10 10 10 10 10 10 10 10 10 10 10 10 10 10 10 10 10 10 10 10 10 10 10 10 10 10 10 10 10 10 10 10 10 10 10 10 10 10 10 10 10 10 10 10 10 10 10 10 10 10 10 10 10 10 10 10 10 10 10 10 10 10 10 10 10 10 10 10 10 10 10 10 10 10 10 10 10 10 10 10 10 10 10 10 10 10 10 10 10 10 10 10 10 10 10 10 10 10 10 10 10 10 10 10 10 10 10 10 10 10 10 10 10 10 10 10 10 10 10 10 10 10 10 10 10 10 10 10 10 10 10 10 10 10 10 10 10 10 10 10 10 10 10 10 10 10 10 10 10 10 10 10 10 10 10 10 10 10 10 10 10 10 10 10 10 10 10 10 10 10 10 10 10 10 10 10 10 10 10 10 10 10 10 10 10 10 10 10 10 10 10 10 10 10 10 10 10 10 10 10 10 10 10 10 10 10 10 10 10 10 10 10 10 10 10 10 10 10 10 10 10 10 10 10 10 10 10 10 10 10 10 10 10 10 10 10 10 10 10 10 10 10 10 10 10 10 10 10 10 10 10 10 10 10 10 10 10 10 10 10 10 10 10 10 10 10 10 10 10 10 10 10 10 10 10 10 10 10 10 10 10 10 10 10 10 10 10 10 10 10 10 10 10 10 10 10 10 10 10 10 10 10 10 10 10 10 10 10 10 10 10 10 10 10 10 10 10 10 10 10 10 10 10 10 10 10 10 10 10 10 10 10 10 10 10 10 10 10 10 10 10 10 10 10 10 10 10 10 10 10 10 10 10 10 10 10 10 10 10 10 10 10 10 10 10 10 10 10 10 10 10 10 10 10 10 10 10 10 10 10 10 10 10 10 10 10 10 10 10 10 10 10 10 10 10 10 10 10 10 10 10 10 10 10 10 10 10 10 10 10 10 10 10 10 10 10 10 10 10 10 10 10 10 10 10 10 10 10 10 10 10 10 10 10 10 10 10 10 10 10 10 10 10 10 10 10 10 10 10 10 10 10 10 10 10 10 10 10 10 10 10 10 10 10 10 10 10 10 10 10 10 10 10 10 10 10 10 10 10 10 10 10 10 10 10 10 10 10 10 10 10 10 10 10 10 10 10 10 10 10 10 10 10 10 10 10 10 10 10 10 10 10 10 10 10 10 10 10 10 10 10 10 10 10 10 10 10 10 10 10 10 10 10 10 10 10 10 10 10 10 10 10 10 10 10 10 10 10 10 10 10 10 10 10 10 10 10 10 10 10 10 10 10 10 10 10 10 10 10 10 10 10 10 10 10 10 10 10 10 10 10 10 10 10 10 10 10 10 10 10 10 10 10 10 10 10 10 10 10 10 10 10 10 10 10 10 10 10 10 10 10 10 10 10 10 10 10 10 10 10 10 10 10 10 10 10 10 10 10 10 10 10 10 10 10 10 10 10 10 10 10 10 10 10 10 10 10 10 10 10 10 10 10 10 10 10 10 10 10 10 10 10 10 10 10 10 10 10 10 10 10 10 10 10 10 10 10 10 10 10 10 10 10 10 10 10 10 10 10 10 10 10 10 10 10 10 10 10 10 10 10 10 10 10 10 10 10 10 10 10 10 10 10 10 10 10 10 10 10 10 10 10 10 10 10 10 10 10 10 10 10 10 10 10 10 10 10 10 10 10 10 10 10 10 10 10 10 10 10 10 10 10 10 10 10 10 10 10 10 10 10 10 10 10 10 10 10 10 10 10 10 10 10 10 10 10 10 10 10 10 10 10 10 10 10 10 10 10 10 10 10 10 10 10 10 10 10 10 10 10 10 10 10 10 10 10 10 10 10 10 10 10 10 10 10 10 10 10 10 10 10 10 10 10 10 10 10 10 10 10 10 10 10 10 10 10 10 10 10 10 10 10 10 10 10 10 10 10 10 10 10 10 10 10 10 10 10 10 10 10 10 10 10 10 10 10 10 10 10 10 10 10 10 10 10 10 10 10 10 10 10 10 10 10 10 10 10 10 10 10 10 10 10 10 10 10 10 10 10 10 10 10 10 10 10 10 10 10 10 10 10 10 10 10 10 10 10 10 10 10 10 10 10 10 10 10 10 10 10 10 10 10 10 10 10 10 10 10 10 10 10 10 10 10 10 10 10 10 10 10 10 10 10 10 10 10 10 10 10 10 10 10 10 10 10 10 10 10 10 10 10 10 10 10 10 10 10 10 10 10 10 10 10 10 10 10 10 10 10 10 10 10 10 10 10 10 10 10 10 10 10 10 10 10 10 10 10 10 10 10 10 10 10 10 10 10 10 10 10 10 10 10 10 10 10 10 10 10 10 10 10 10 10 10 10 10 10 10 10 10 10 10 10 10 10 10 10 10 10 10 10 10 10 10 10 10 10 10 10 10 10 10 10 10 10 10 10 10 10 10 10 10 10 10 10 10 10 10 10 10 10 10 10 10 10 10 10 10 10 10 10 10 10 10 10 10 10 10 10 10 10 10 10 10 10 10 10 10 10 10 10 10 10 10 10 10 10 10 10 10 10 10 10 10 10 10 10 10 10 10 10 10 10 10 10 10 10 10 10 10 10 10 10 10 10 10 10 10 10 10 10 10 10 10 10 10 10 10 10 10 10 10 10 10 10 10 10 10 10 10 10 10 10 10 10 10 10 10 10 10 10 10 10 10 10 10 10 10 10 10 10 10 10 10 10 10 10 10 10 10 10 10 10 10 10 10 10 10 10 10 10 10 10 10 10 10 10 10 10 10 10 10 10 10 10 10 10 10 10 10 10 10 10 10 10 10 10 10 10 10 10 10 10 10 10 10 10 10 10 10 10 10 10 10 10 10 10 10 10 10 10 10 10 10 10 10 10 10 10 10 10 10 10 10 10 10 10 10 10 10 10 10 10 10 10 10 10 10 10 10 10 10 10 10 10 10 10 10 10 10 10 10 10 10 10 10 10 10 10 10 10 10 10 10 10 10 10 10 10 10 10 10 10 10 10 10 10 10 10 10 10 10 10 10 10 10 10 10 10 10 10 10 10 10 10 10 10 10 10 10 10 10 10 10 10 10 10 10 10 10 10 10 10 10 10 10 10 10 10 10 10 10 10 10 10 10 10 10 10 10 10 10 10 10 10 10 10 10 10 10 10 10 10 10 10 10 10 10 10 10 10 10 10 10 10 10 10 10 10 10 10 10 10 10 10 10 10 10 10 10 10 10 10 10 10 10 10 10 10 10 10 10 10 10 10 10 10 10 10 10 10 10 10 10 10 10 10 10 10 10 10 10 10 10 10 10 10 10 10 10 10 10 10 10 10 10 10 10 10 10 10 10 10 10 10 10 10 10 10 10 10 10 10 10 10 10 10 10 10 10 10 10 10 10 10 10 10 10 10 10 10 10 10 10 10 10 10 10 10 10 10 10 10 10 10 10 10 10 10 10 10 10 10 10 10 10 10 10 10 10 10 10 10 10 10 10 10 10 10 10 10 10 10 10 10 10 10 10 10 10 10 10 10 10 10 10 10 10 10 10 10 10 10 10 10 10 10 10 10 10 10 10 10 10 10 10 10 10 10 10 10 10 10 10 10 10 10 10 10 10 10 10 10 10 10 10 10 10 10 10 10 10 10 10 10 10 10 10 10 10 10 10 10 10 10 10 10 10 10 10 10 10 10 10 10 10 10 10 10 10 10 10 10 10 10 10 10 10 10 10 10 10 10 10 10 10 10 10 10 10 10 10 10 10 10 10 10 10 10 10 10 10 10 10 10 10 10 10 10 10 10 10 10 10 10 10 10 10 10 10 10 10 10 10 10 10 10 10 10 10 10 10 10 10 10 10 10 10 10 10 10 10 10 10 10 10 10 10 10 10 10 10 10 10 10 10 10 10 10 10 10 10 10 10 10 10 10 10 10 10 10 10 10 10 10 10 10 10 10 10 10 10 10 10 10 10 10 10 10 10 10 10 10 10 10 10 10 10 10 10 10 10 10 10 10 10 10 10 10 10 10 10 10 10 10 10 10 10 10 10 10 10 10 10 10 10 10 10 10 10 10 10 10 10 10 10 10 10 10 10 10 10 10 10 10 10 10 10 10 10 10 10 10 10 10 10 10 10 10 10 10 10 10 10 10 10 10 10 10 10 10 10 10 10 10 10 10 10 10 10 10 10 10 10 10 10 10 10 10 10 10 10 10 10 10 10 10 10 10 10 10 10 10 10 10 10 10 10 10 10 10 10 10 10 10 10 10 10 10 10 10 10 10 10 10 10 10 10 10 10 10 10 10 10 10 10 10 10 10 10 10 10 10 10 10 10 10 10 10 10 10 10 10 10 10 10 10 10 10 10 10 10 10 10 10 10 10 10 10 10 10 10 10 10 10 10 10 10 10 10 10 10 10 10 10 10 10 10 10 10 10 10 10 10 10 10 10 10 10 10 10 10 10 10 10 10 10 10 10 10 10 10 10 10 10 10 10 10 10 10 10 10 10 10 10 10 10 10 10 10 10 10 10 10 10 10 10 10 10 10 10 10 10 10 10 10 10 10 10 10 10 10 10 10 10 10 10 10 10 10 10 10 10 10 10 10 10 10 10 10 10 10 10 10 10 10 10 10 10 10 10 10 10 10 10 10 10 10 10 10 10 10 10 10 10 10 10 10 10 10 10 10 10 10 10 10 10 10 10 10 10 10 10 10 10 10 10 10 10 10 10 10 10 10 10 10 10 10 10 10 10 10 10 10 10 10 10 10 10 10 10 10 10 10 10 10 10 10 10 10 10 10 10 10 10 10 10 10 10 10 10 10 10 10 10 10 10 10 10 10 10 10 10 10 10 10 10 10 10 10 10 10 10 10 10 10 10 10 10 10 10 10 10 10 10 10 10 10 10 10 10 10 10 10 10 10 10 10 10 10 10 10 10 10 10 10 10 10 10 10 10 10 10 10 10 10 10 10 10 10 10 10 10 10 10 10 10 10 10 10 10 10 10 10 10 10 10 10 10 10 10 10 10 10 10 10 10 10 10 10 10 10 10 10 10 10 10 10 10 10 10 10 10 10 10 10 10 10 10 10 10 10 10 10 10 10 10 10 10 10 10 10 10 10 10 10 10 10 10 10 10 10 10 10 10 10 10 10 10 10 10 10 10 10 10 10 10 10 10 10 10 10 10 10 10 10 10 10 10 10 10 10 10 10 10 10 10 10 10 10 10 10 10 10 10 10 10 10 10 10 10 10 10 10 10 10 10 10 10 10 10 10 10 10 10 10 10 10 10 10 10 10 10 10 10 10 10 10 10 10 10 10 10 10 10 10 10 10 10 10 10 10 10 10 10 10 10 10 10 10 10 10 10 10 10 10 10 10 10 10 10 10 10 10 10 10 10 10 10 10 10 10 10 10 10 10 10 10 10 10 10 10 10 10 10 10 10 10 10 10 10 10 10 10 10 10 10 10 10 10 10 10 10 10 10 10 10 10 10 10 10 10 10 10 10 10 10 10 10 10 10 10 10 10 10 10 10 10 10 10 10 10 10 10 10 10 10 10 10 10 10 10 10 10 10 10 10 10 10 10 10 10 10 10 10 10 10 10 10 10 10 10 10 10 10 10 10 10 10 10 10 10 10 10 10 10 10 10 10 10 10 10 10 10 10 10 10 10 10 10 10 10 10 10 10 10 10 10 10 10 10 10 10 10 10 10 10 10 10 10 10 10 10 10 10 10 10 10 10 10 10 10 10 10 10 10 10 10 10 10 10 10 10 10 10 10 10 10 10 10 10 10 10 10 10 10 10 10 10 10 10 10 10 10 10 10 10 10 10 10 10 10 10 10 10 10 10 10 10 10 10 10 10 10 10 10 10 10 10 10 10 10 10 10 10 10 10 10 10 10 10 10 10 10 10 10 10 10 10 10 10 10 10 10 10 10 10 10 10 10 10 10 10 10 10 10 10 10 10 10 10 10 10 10 10 10 10 10 10 10 10 10 10 10 10 10 10 10 10 10 10 10 10 10 10 10 10 10 10 10 10 10 10 10 10 10 10 10 10 10 10 10 10 10 10 10 10 10 10 10 10 10 10 10 10 10 10 10 10 10 10 10 10 10 10 10 10 10 10 10 10 10 10 10 10 10 10 10 10 10 10 10 10 10 10 10 10 10 10 10 10 10 10 10 10 10 10 10 10 10 10 10 10 10 10 10 10 10 10 10 10 10 10 10 10 10 10 10 10 10 10 10 10 10 10 10 10 10 10 10 10 10 10 10 10 10 10 10 10 10 10 10 10 10 10 10 10 10 10 10 10 10 10 10 10 10 10 10 10 10 10 10 10 10 10 10 10 10 10 10 10 10 10 10 10 10 10 10 10 10 10 10 10 10 10 10 10 10 10 10 10 10 10 10 10 10 10 10 10 10 10 10 10 10 10 10 10 10 10 10 10 10 10 10 10 10 10 10 10 10 10 10 10 10 10 10 10 10 10 10 10 10 10 10 10 10 10 10 10 10 10 10 10 10 10 10 10 10 10 10 10 10 10 10 10 10 10 10 10 10 10 10 10 10 10 10 10 10 10 10 10 10 10 10 10 10 10 10 10 10 10 10 10 10 10 10 10 10 10 10 10 10 10 10 10 10 10 10 10 10 10 10 10 10 10 10 10 10 10 10 10 10 10 10 10 10 10 10 10 10 10 10 10 10 10 10 10 10 10 10 10 10 10 10 10 10 10 10 10 10 10 10 10 10 10 10 10 10 10 10 10 10 10 10 10 10 10 10 10 10 10 10 10 10 10 10 10 10 10 10 10 10 10 10 10 10 10 10 10 10 10 10 10 10 10 10 10 10 10 10 10 10 10 10 10 10 10 10 10 10 10 10 10 10 10 10 10 10 10 10 10 10 10 10 10 10 10 10 10 10 10 10 10 10 10 10 10 10 10 10 10 10 10 10 10 10 10 10 10 10 10 10 10 10 10 10 10 10 10 10 10 10 10 10 10 10 10 10 10 10 10 10 10 10 10 10 10 10 10 10 10 10 10 10 10 10 10 10 10 10 10 10 10 10 10 10 10 10 10 10 10 10 10 10 10 10 10 10 10 10 10 10 10 10 10 10 10 10 10 10 10 10 10 10 10 10 10 10 10 10 10 10 10 10 10 10 10 10 10 10 10 10 10 10 10 10 10 10 10 10 10 10 10 10 10 10 10 10 10 10 10 10 10 10 10 10 10 10 10 10 10 10 10 10 10 10 10 10 10 10 10 10 10 10 10 10 10 10 10 10 10 10 10 10 10 10 10 10 10 10 10 10 10 10 10 10 10 10 10 10 10 10 10 10 10 10 10 10 10 10 10 10 10 10 10 10 10 10 10 10 10 10 10 10 10 10 10 10 10 10 10 10 10 10 10 10 10 10 10 10 10 10 10 10 10 10 10 10 10 10 10 10 10 10 10 10 10 10 10 10 10 10 10 10 10 10 10 10 10 10 10 10 10 10 10 10 10 10 10 10 10 10 10 10 10 10 10 10 10 10 10 10 10 10 10 10 10 10 10 10 10 10 10 10 10 10 10 10 10 10 10 10 10 10 10 10 10 10 10 10 10 10 10 10 10 10 10 10 10 10 10 10 10 10 10 10 10 10 10 10 10 10 10 10 10 10 10 10 10 10 10 10 10 10 10 10 10 10 10 10 10 10 10 10 10 10 10 10 10 10 10 10 10 10 10 10 10 10 10 10 10 10 10 10 10 10 10 10 10 10 10 10 10 10 10 10 10 10 10 10 10 10 10 10 10 10 10 10 10 10 10 10 10 10 10 10 10 10 10 10 10 10 10 10 10 10 10 10 10 10 10 10 10 10 10 10 10 10 10 10 10 10 10 10 10 10 10 10 10 10 10 10 10 10 10 10 10 10 10 10 10 10 10 10 10 10 10 10 10 10 10 10 10 10 10 10 10 10 10 10 10 10 10 10 10 10 10 10 10 10 10 10 10 10 10 10 10 10 10 10 10 10 10 10 10 10 10 10 10 10 10 10 10 10 10 10 10 10 10 10 10 10 10 10 10 10 10 10 10 10 10 10 10 10 10 10 10 10 10 10 10 10 10 10 10 10 10 10 10 10 10 10 10 10 10 10 10 10 10 10 10 10 10 10 10 10 10 10 10 10 10 10 10 10 10 10 10 10 10 10 10 10 10 10 10 10 10 10 10 10 10 10 10 10 10 10 10 10 10 10 10 10 10 10 10 10 10 10 10 10 10 10 10 10 10 10 10 10 10 10 10 10 10 10 10 10 10 10 10 10 10 10 10 10 10 10 10 10 10 10 10 10 10 10 10 10 10 10 10 10 10 10 10 10 10 10 10 10 10 10 10 10 10 10 10 10 10 10 10 10 10 10 10 10 10 10 10 10 10 10 10 10 10 10 10 10 10 10 10 10 10 10 10 10 10 10 10 10 10 10 10 10 10 10 10 10 10 10 10 10 10 10 10 10 10 10 10 10 10 10 10 10 10 10 10 10 10 10 10 10 10 10 10 10 10 10 10 10 10 10 10 10 10 10 10 10 10 10 10 10 10 10 10 10 10 10 10 10 10 10 10 10 10 10 10 10 10 10 10 10 10 10 10 10 10 10 10 10 10 10 10 10 10 10 10 10 10 10 10 10 10 10 10 10 10 10 10 10 10 10 10 10 10 10 10 10 10 10 10 10 10 10 10 10 10 10 10 10 10 10 10 10 10 10 10 10 10 10 10 10 10 10 10 10 10 10 10 10 10 10 10 10 10 10 10 10 10 10 10 10 10 10 10 10 10 10 10 10 10 10 10 10 10 10 10 10 10 10 10 10 10 10 10 10 10 10 10 10 10 10 10 10 10 10 10 10 10 10 10 10 10 10 10 10 10 10 10 10 10 10 10 10 10 10 10 10 10 10 10 10 10 10 10 10 10 10 10 10 10 10 10 10 10 10 10 10 10 10 10 10 10 10 10 10 10 10 10 10 10 10 10 10 10 10 10 10 10 10 10 10 10 10 10 10 10 10 10 10 10 10 10 10 10 10 10 10 10 10 10 10 10 10 10 10 10 10 10 10 10 10 10 10 10 10 10 10 10 10 10 10 10 10 10 10 10 10 10 10 10 10 10 10 10 10 10 10 10 10 10 10 10 10 10 10 10 10 10 10 10 10 10 10 10 10 10 10 10 10 10 10 10 10 10 10 10 10 10 10 10 10 10 10 10 10 10 10 10 10 10 10 10 10 10 10 10 10 10 10 10 10 10 10 10 10 10 10 10 10 10 10 10 10 10 10 10 10 10 10 10 10 10 10 10 10 10 10 10 10 10 10 10 10 10 10 10 10 10 10 10 10 10 10 10 10 10 10 10 10 10 10 10 10 10 10 10 10 10 10 10 10 10 10 10 10 10 10 10 10 10 10 10 10 10 10 10 10 10 10 10 10 10 10 10 10 10 10 10 10 10 10 10 10 10 10 10 10 10 10 10 10 10 10 10 10 10 10 10 10 10 10 10 10 10 10 10 10 10 10 10 10 10 10 10 10 10 10 10 10 10 10 10 10 10 10 10 10 10 10 10 10 10 10 10 10 10 10 10 10 10 10 10 10 10 10 10 10 10 10 10 10 10 10 10 10 10 10 10 10 10 10 10 10 10 10 10 10 10 10 10 10 10 10 10 10 10 10 10 10 10 10 10 10 10 10 10 10 10 10 10 10 10 10 10 10 10 10 10 10 10 10 10 10 10 10 10 10 10 10 10 10 10 10 10 10 10 10 10 10 10 10 10 10 10 10 10 10 10 10 10 10 10 10 10 10 10 10 10 10 10 10 10 10 10 10 10 10 10 10 10 10 10 10 10 10 10 10 10 10 10 10 10 10 10 10 10 10 10 10 10 10 10 10 10 10 10 10 10 10 10 10 10 10 10 10 10 10 10 10 10 10 10 10 10 10 10 10 10 10 10 10 10 10 10 10 10 10 10 10 10 10 10 10 10 10 10 10 10 10 10 10 10 10 10 10 10 10 10 10 10 10 10 10 10 10 10 10 10 10 10 10 10 10 10 10 10 10 10 10 10 10 10 10 10 10 10 10 10 10 10 10 10 10 10 10 10 10 10 10 10 10 10 10 10 10 10 10 10 10 10 10 10 10 10 10 10 10 10 10 10 10 10 10 10 10 10 10 10 10 10 10 10 10 10 10 10 10 10 10 10 10 10 10 10 10 10 10 10 10 10 10 10 10 10 10 10 10 10 10 10 10 10 10 10 10 10 10 10 10 10 10 10 10 10 10 10 10 10 10 10 10 10 10 10 10 10 10 10 10 10 10 10 10 10 10 10 10 10 10 10 10 10 10 10 10 10 10 10 10 10 10 10 10 10 10 10 10 10 10 10 10 10 10 10 10 10 10 10 10 10 10 10 10 10 10 10 10 10 10 10 10 10 10 10 10 10 10 10 10 10 10 10 10 10 10 10 10 10 10 10 10 10 10 10 10 10 10 10 10 10 10 10 10 10 10 10 10 10 10 10 10 10 10 10 10 10 10 10 10 10 10 10 10 10 10 10 10 10 10 10 10 10 10 10 10 10 10 10 10 10 10 10 10 10 10 10 10 10 10 10 10 10 10 10 10 10 10 10 10 10 10 10 10 10 10 10 10 10 10 10 10 10 10 10 10 10 10 10 10 10 10 10 10 10 10 10 10 10 10 10 10 10 10 10 10 10 10 10 10 10 10 10 10 10 10 10 10 10 10 10 10 10 10 10 10 10 10 10 10 10 10 10 10 10 10 10 10 10 10 10 10 10 10 10 10 10 10 10 10 10 10 10 10 10 10 10 10 10 10 10 10 10 10 10 10 10 10 10 10 10 10 10 10 10 10 10 10 10 10 10 10 10 10 10 10 10 10 10 10 10 10 10 10 10 10 10 10 10 10 10 10 10 10 10 10 10 10 10 10 10 10 10 10 10 10 10 10 10 10 10 10 10 10 10 10 10 10 10 10 10 10 10 10 10 10 10 10 10 10 10 10 10 10 10 10 10 10 10 10 10 10 10 10 10 10 10 10 10 10 10 10 10 10 10 10 10 10 10 10 10 10 10 10 10 10 10 10 10 10 10 10 10 10 10 10 10 10 10 10 10 10 10 10 10 10 10 10 10 10 10 10 10 10 10 10 10 10 10 10 10 10 10 10 10 10 10 10 10 10 10 10 10 10 10 10 10 10 10 10 10 10 10 10 10 10 10 10 10 10 10 10 10 10 10 10 10 10 10 10 10 10 10 10 10 10 10 10 10 10 10 10 10 10 10 10 10 10 10 10 10 10 10 10 10 10 10 10 10 10 10 10 10 10 10 10 10 10 10 10 10 10 10 10 10 10 10 10 10 10 10 10 10 10 10 10 10 10 10 10 10 10 10 10 10 10 10 10 10 10 10 10 10 10 10 10 10 10 10 10 10 10 10 10 10 10 10 10 10 10 10 10 10 10 10 10 10 10 10 10 10 10 10 10 10 10 10 10 10 10 10 10 10 10 10 10 10 10 10 10 10 10 10 10 10 10 10 10 10 10 10 10 10 10 10 10 10 10 10 10 10 10 10 10 10 10 10 10 10 10 10 10 10 10 10 10 10 10 10 10 10 10 10 10 10 10 10 10 10 10 10 10 10 10 10 10 10 10 10 10 10 10 10 10 10 10 10 10 10 10 10 10 10 10 10 10 10 10 10 10 10 10 10 10 10 10 10 10 10 10 10 10 10 10 10 10 10 10 10 10 10 10 10 10 10 10 10 10 10 10 10 10 10 10 10 10 10 10 10 10 10 10 10 10 10 10 10 10 10 10 10 10 10 10 10 10 10 10 10 10 10 10 10 10 10 10 10 10 10 10 10 10 10 10 10 10 10 10 10 10 10 10 10 10 10 10 10 10 10 10 10 10 10 10 10 10 10 10 10 10 10 10 10 10 10 10 10 10 10 10 10 10 10 10 10 10 10 10 10 10 10 10 10 10 10 10 10 10 10 10 10 10 10 10 10 10 10 10 10 10 10 10 10 10 10 10 10 10 10 10 10 10 10 10 10 10 10 10 10 10 10 10 10 10 10 10 10 10 10 10 10 10 10 10 10 10 10 10 10 10 10 10 10 10 10 10 10 10 10 10 10 10 10 10 10 10 10 10 10 10 10 10 10 10 10 10 10 10 10 10 10 10 10 10 10 10 10 10 10 10 10 10 10 10 10 10 10 10 10 10 10 10 10 10 10 10 10 10 10 10 10 10 10 10 10 10 10 10 10 10 10 10 10 10 10 10 10 10 10 10 10 10 10 10 10 10 10 10 10 10 10 10 10 10 10 10 10 10 10 10 10 10 10 10 10 10 10 10 10 10 10 10 10 10 10 10 10 10 10 10 10 10 10 10 10 10 10 10 10 10 10 10 10 10 10 10 10 10 10 10 10 10 10 10 10 10 10 10 10 10 10 10 10 10 10 10 10 10 10 10 10 10 10 10 10 10 10 10 10 10 10 10 10 10 10 10 10 10 10 10 10 10 10 10 10 10 10 10 10 10 10 10 10 10 10 10 10 10 10 10 10 10 10 10 10 10 10 10 10 10 10 10 10 10 10 10 10 10 10 10 10 10 10 10 10 10 10 10 10 10 10 10 10 10 10 10 10 10 10 10 10 10 10 10 10 10 10 10 10 10 10 10 10 10 10 10 10 10 10 10 10 10 10 10 10 10 10 10 10 10 10 10 10 10 10 10 10 10 10 10 10 10 10 10 10 10 10 10 10 10 10 10 10 10 10 10 10 10 10 10 10 10 10 10 10 10 10 10 10 10 10 10 10 10 10 10 10 10 10 10 10 10 10 10 10 10 10 10 10 10 10 10 10 10 10 10 10 10 10 10 10 10 10 10 10 10 10 10 10 10 10 10 10 10 10 10 10 10 10 10 10 10 10 10 10 10 10 10 10 10 10 10 10 10 10 10 10 10 10 10 10 10 10 10 10 10 10 10 10 10 10 10 10 10 10 10 10 10 10 10 10 10 10 10 10 10 10 10 10 10 10 10 10 10 10 10 10 10 10 10 10 10 10 10 10 10 10 10 10 10 10 10 10 10 10 10 10 10 10 10 10 10 10 10 10 10 10 10 10 10 10 10 10 10 10 10 10 10 10 10 10 10 10 10 10 10 10 10 10 10 10 10 10 10 10 10 10 10 10 10 10 10 10 10 10 10 10 10 10 10 10 10 10 10 10 10 10 10 10 10 10 10 10 10 10 10 10 10 10 10 10 10 10 10 10 10 10 10 10 10 10 10 10 10 10 10 10 10 10 10 10 10 10 10 10 10 10 10 10 10 10 10 10 10 10 10 10 10 10 10 10 10 10 10 10 10 10 10 10 10 10 10 10 10 10 10 10 10 10 10 10 10 10 10 10 10 10 10 10 10 10 10 10 10 10 10 10 10 10 10 10 10 10 10 10 10 10 10 10 10 10 10 10 10 10 10 10 10 10 10 10 10 10 10 10 10 10 10 10 10 10 10 10 10 10 10 10 10 10 10 10 10 10 10 10 10 10 10 10 10 10 10 10 10 10 10 10 10 10 10 10 10 10 10 10 10 10 10 10 10 10 10 10 10 10 10 10 10 10 10 10 10 10 10 10 10 10 10 10 10 10 10 10 10 10 10 10 10 10 10 10 10 10 10 10 10 10 10 10 10 10 10 10 10 10 10 10 10 10 10 10 10 10 10 10 10 10 10 10 10 10 10 10 10 10 10 10 10 10 10 10 10 10 10 10 10 10 10 10 10 10 10 10 10 10 10 10 10 10 10 10 10 10 10 10 10 10 10 10 10 10 10 10 10 10 10 10 10 10 10 10 10 10 10 10 10 10 10 10 10 10 10 10 10 10 10 10 10 10 10 10 10 10 10 10 10 10 10 10 10 10 10 10 10 10 10 10 10 10 10 10 10 10 10 10 10 10 10 10 10 10 10 10 10 10 10 10 10 10 10 10 10 10 10 10 10 10 10 10 10 10 10 10 10 10 10 10 10 10 10 10 10 10 10 10 10 10 10 10 10 10 10 10 10 10 10 10 10 10 10 10 10 10 10 10 10 10 10 10 10 10 10 10 10 10 10 10 10 10 10 10 10 10 10 10 10 10 10 10 10 10 10 10 10 10 10 10 10 10 10 10 10 10 10 10 10 10 10 10 10 10 10 10 10 10 10 10 10 10 10 10 10 10 10 10 10 10 10 10 10 10 10 10 10 10 10 10 10 10 10 10 10 10 10 10 10 10 10 10 10 10 10 10 10 10 10 10 10 10 10 10 10 10 10 10 10 10 10 10 10 10 10 10 10 10 10 10 10 10 10 10 10 10 10 10 10 10 10 10 10 10 10 10 10 10 10 10 10 10 10 10 10 10 10 10 10 10 10 10 10 10 10 10 10 10 10 10 10 10 10 10 10 10 10 10 10 10 10 10 10 10 10 10 10 10 10 10 10 10 10 10 10 10 10 10 10 10 10 10 10 10 10 10 10 10 10 10 10 10 10 10 10 10 10 10 10 10 10 10 10 10 10 10 10 10 10 10 10 10 10 10 10 10 10 10 10 10 10 10 10 10 10 10 10 10 10 10 10 10 10 10 10 10 10 10 10 10 10 10 10 10 10 10 10 10 10 10 10 10 10 10 10 10 10 10 10 10 10 10 10 10 10 10 10 10 10 10 10 10 10 10 10 10 10 10 10 10 10 10 10 10 10 10 10 10 10 10 10 10 10 10 10 10 10 10 10 10 10 10 10 10 10 10 10 10 10 10 10 10 10 10 10 10 10 10 10 10 10 10 10 10 10 10 10 10 10 10 10 10 10 10 10 10 10 10 10 10 10 10 10 10 10 10 10 10 10 10 10 10 10 10 10 10 10 10 10 10 10 10 10 10 10 10 10 10 10 10 10 10 10 10 10 10 10 10 10 10 10 10 10 10 10 10 10 10 10 10 10 10 10 10 10 10 10 10 10 10 10 10 10 10 10 10 10 10 10 10 10 10 10 10 10 10 10 10 10 10 10 10 10 10 10 10 10 10 10 10 10 10 10 10 10 10 10 10 10 10 10 10 10 10 10 10 10 10 10 10 10 10 10 10 10 10 10 10 10 10 10 10 10 10 10 10 10 10 10 10 10 10 10 10 10 10 10 10 10 10 10 10 10 10 10 10 10 10 10 10 10 10 10 10 10 10 10 10 10 10 10 10 10 10 10 10 10 10 10 10 10 10 10 10 10 10 10 10 10 10 10 10 10 10 10 10 10 10 10 10 10 10 10 10 10 10 10 10 10 10 10 10 10 10 10 10 10 10 10 10 10 10 10 10 10 10 10 10 10 10 10 10 10 10 10 10 10 10 10 10 10 10 10 10 10 10 10 10 10 10 10 10 10 10 10 10 10 10 10 10 10 10 10 10 10 10 10 10 10 10 10 10 10 10 10 10 10 10 10 10 10 10 10 10 10 10 10 10 10 10 10 10 10 10 10 10 10 10 10 10 10 10 10 10 10 10 10 10 10 10 10 10 10 10 10 10 10 10 10 10 10 10 10 10 10 10 10 10 10 10 10 10 10 10 10 10 10 10 10 10 10 10 10 10 10 10 10 10 10 10 10 10 10 10 10 10 10 10 10 10 10 10 10 10 10 10 10 10 10 10 10 10 10 10 10 10 10 10 10 10 10 10 10 10 10 10 10 10 10 10 10 10 10 10 10 10 10 10 10 10 10 10 10 10 10 10 10 10 10 10 10 10 10 10 10 10 10 10 10 10 10 10 10 10 10 10 10 10 10 10 10 10 10 10 10 10 10 10 10 10 10 10 10 10 10 10 10 10 10 10 10 10 10 10 10 10 10 10 10 10 10 10 10 10 10 10 10 10 10 10 10 10 10 10 10 10 10 10 10 10 10 10 10 10 10 10 10 10 10 10 10 10 10 10 10 10 10 10 10 10 10 10 10 10 10 10 10 10 10 10 10 10 10 10 10 10 10 10 10 10 10 10 10 10 10 10 10 10 10 10 10 10 10 10 10 10 10 10 10 10 10 10 10 10 10 10 10 10 10 10 10 10 10 10 10 10 10 10 10 10 10 10 10 10 10 10 10 10 10 10 10 10 10 10 10 10 10 10 10 10 10 10 10 10 10 10 10 10 10 10 10 10 10 10 10 10 10 10 10 10 10 10 10 10 10 10 10 10 10 10 10 10 10 10 10 10 10 10 10 10 10 10 10 10 10 10 10 10 10 10 10 10 10 10 10 10 10 10 10 10 10 10 10 10 10 10 10 10 10 10 10 10 10 10 10 10 10 10 10 10 10 10 10 10 10 10 10 10 10 10 10 10 10 10 10 10 10 10 10 10 10 10 10 10 10 10 10 10 10 10 10 10 10 10 10 10 10 10 10 10 10 10 10 10 10 10 10 10 10 10 10 10 10 10 10 10 10 10 10 10 10 10 10 10 10 10 10 10 10 10 10 10 10 10 10 10 10 10 10 10 10 10 10 10 10 10 10 10 10 10 10 10 10 10 10 10 10 10 10 10 10 10 10 10 10 10 10 10 10 10 10 10 10 10 10 10 10 10 10 10 10 10 10 10 10 10 10 10 10 10 10 10 10 10 10 10 10 10 10 10 10 10 10 10 10 10 10 10 10 10 10 10 10 10 10 10 10 10 10 10 10 10 10 10 10 10 10 10 10 10 10 10 10 10 10 10 10 10 10 10 10 10 10 10 10 10 10 10 10 10 10 10 10 10 10 10 10 10 10 10 10 10 10 10 10 10 10 10 10 10 10 10 10 10 10 10 10 10 10 10 10 10 10 10 10 10 10 10 10 10 10 10 10 10 10 10 10 10 10 10 10 10 10 10 10 10 10 10 10 10 10 10 10 10 10 10 10 10 10 10 10 10 10 10 10 10 10 10 10 10 10 10 10 10 10 10 10 10 10 10 10 10 10 10 10 10 10 10 10 10 10 10 10 10 10 10 10 10 10 10 10 10 10 10 10 10 10 10 10 10 10 10 10 10 10 10 10 10 10 10 10 10 10 10 10 10 10 10 10 10 10 10 10 10 10 10 10 10 10 10 10 10 10 10 10 10 10 10 10 10 10 10 10 10 10 10 10 10 10 10 10 10 10 10 10 10 10 10 10 10 10 10 10 10 10 10 10 10 10 10 10 10 10 10 10 10 10 10 10 10 10 10 10 10 10 10 10 10 10 10 10 10 10 10 10 10 10 10 10 10 10 10 10 10 10 10 10 10 10 10 10 10 10 10 10 10 10 10 10 10 10 10 10 10 10 10 10 10 10 10 10 10 10 10 10 10 10 10 10 10 10 10 10 10 10 10 10 10 10 10 10 10 10 10 10 10 10 10 10 10 10 10 10 10 10 10 10 10 10 10 10 10 10 10 10 10 10 10 10 10 10 10 10 10 10 10 10 10 10 10 10 10 10 10 10 10 10 10 10 10 10 10 10 10 10 10 10 10 10 10 10 10 10 10 10 10 10 10 10 10 10 10 10 10 10 10 10 10 10 10 10 10 10 10 10 10 10 10 10 10 10 10 10 10 10 10 10 10 10 10 10 10 10 10 10 10 10 10 10 10 10 10 10 10 10 10 10 10 10 10 10 10 10 10 10 10 10 10 10 10 10 10 10 10 10 10 10 10 10 10 10 10 10 10 10 10 10 10 10 10 10 10 10 10 10 10 10 10 10 10 10 10 10 10 10 10 10 10 10 10 10 10 10 10 10 10 10 10 10 10 10 10 10 10 10 10 10 10 10 10 10 10 10 10 10 10 10 10 10 10 10 10 10 10 10 10 10 10 10 10 10 10 10 10 10 10 10 10 10 10 10 10 10 10 10 10 10 10 10 10 10 10 10 10 10 10 10 10 </DataArray>
</Cells>
<PointData  Scalars="von_Mises stress"> 
<DataArray  type="Float64"  Name="von_Mises stress"  format="ascii">3.3424924872644588e+04  3.1258652944343201e+04  3.2960366022442613e+04  3.3014101514016831e+04  2.6740315124131830e+03  1.9099363402689894e+03  3.6060770427626665e+02  3.0177771217230185e+02  4.1719918926915241e+04  3.4654676824950606e+04  3.0722003208957452e+04  3.4731082026508055e+04  3.3354574537079730e+04  3.5040761495359038e+04  2.9124244303158306e+04  3.6135875570498167e+04  4.2723752029665764e+02  4.6017874663397924e+02  3.9220325119907320e+04  4.8977780085928716e+04  4.5220062549196758e+04  4.4022120807794621e+04  4.3656889729293420e+04  4.2715597860702524e+04  4.1183584658703890e+04  4.1197520412886333e+04  3.9335453270591323e+04  3.8119143819664270e+04  3.9274846087643346e+04  3.2678681765118392e+04  3.2658166302512105e+04  2.9919085900008369e+04  2.7976580265570603e+04  2.8065331818492625e+04  2.5300391438374430e+04  2.5061986885664021e+04  2.3446155544456011e+04  2.3292679195802466e+04  2.0011078955445031e+04  1.9068451780642350e+04  1.9261435834271189e+04  1.5957502647390122e+04  1.6271827066971387e+04  1.3506192323509740e+04  1.1786222041136914e+04  1.1290443790061021e+04  1.0201053559320670e+04  9.7577047859851682e+03  9.2921853616539138e+03  8.6721352152842974e+03  7.6177950563551794e+03  6.8294670915758115e+03  5.6389986276337868e+03  5.0068164277437336e+03  4.1852970668188855e+03  4.0648802901073173e+03  3.3024241173603946e+03  3.1155215135086446e+03  2.8934044835415934e+03  4.0035840729314264e+03  4.4575769920719604e+03  3.5635831697862035e+04  2.5080501386319931e+04  2.9737364746699808e+04  4.0741509989601793e+04  4.7683367598108278e+04  4.9248719988909754e+04  4.8988224015211919e+04  3.7222750639055172e+04  4.1085105025304809e+04  3.9641495968415686e+04  4.3361908748866801e+04  3.6894675482045845e+04  3.3082864642407760e+04  3.3854708658864147e+04  2.7509867578823978e+04  2.9184486247988796e+04  3.0450281675341506e+04  2.7959847838668305e+04  2.6056315659867698e+04  2.3625010961269629e+04  2.5205825373014810e+04  1.9446300750440794e+04  1.9927543034097765e+04  2.0435875495320484e+04  1.7146599256994068e+04  1.5032440986807334e+04  1.4740793470854442e+04  1.2539219672950407e+04  1.6059877211008279e+04  1.3795453083057790e+04  1.0424605303145614e+04  1.0041266730200341e+04  9.2725426946449297e+03  8.1113658655456311e+03  7.7464139594640892e+03  6.9768303690016346e+03  6.4447749833950438e+03  6.0797225876092234e+03  4.6992015118277486e+03  4.3815627936919400e+03  3.0201124417204692e+03  3.5440630691735155e+03  3.5186943889093118e+03  2.6378956119910695e+03  2.3681937277278707e+03  3.6451671443882192e+03  3.8872569156115547e+04  2.8288175075538944e+04  2.5490506737886677e+04  2.7787609862638928e+04  3.0594961988838528e+04  2.7133325664220214e+04  3.2967636949380765e+04  3.2074880987708057e+04  4.9000743502942436e+02  6.8517363414118199e+02  1.2988573393413185e+03  2.2834568259018270e+03  2.5417168095732641e+03  2.8999267399439227e+03  4.0780068430647475e+03  4.5939813631308425e+03  5.7857973793842002e+03  6.5765354148431798e+03  7.9151231359706026e+03  8.9943506733464001e+03  9.8698215489582344e+03  1.1361317810704924e+04  1.1400197825491610e+04  1.2225125787009703e+04  1.3267176283098461e+04  1.4383545991083685e+04  1.6981607336097448e+04  1.8402588790762438e+04  2.2786334038079029e+04  2.3151339415535520e+04  2.6714852145746423e+04  2.9201686670760690e+04  2.7107171236977851e+04  2.8849881292300619e+04  3.4941399957040456e+04  3.6968854854134144e+04  3.4615987156966949e+04  3.5565640245913142e+04  4.2718396841488233e+04  4.3391077022993442e+04  4.1219696954639978e+04  4.3774080475396440e+04  3.4656369657090272e+02  5.7670054461364316e+02  8.5595810424123169e+02  1.2620568292425501e+03  1.5411699571660815e+03  2.7922684191780604e+03  4.2241215164703717e+03  3.5647974205081431e+04  3.9706191470168829e+04  4.2748413233050087e+04  3.8741196862485325e+04  4.1742878835204137e+04  3.4675089853205034e+04  3.2649113835737902e+04  3.3187320474416345e+04  3.1506090339558661e+04  2.8422802686257699e+04  2.7335520951773171e+04  2.3968024123895295e+04  2.2037324702773280e+04  2.1188650892617137e+04  1.9760123095598294e+04  1.5351297382449573e+04  1.8438889975747647e+04  1.4941681468774394e+04  1.2326562320318773e+04  1.1367095224721657e+04  9.3012734901455824e+03  9.9626270165380392e+03  8.2435910325100213e+03  6.7000065144291048e+03  5.9092890063022032e+03  4.4175030623966040e+03  3.7517122616240690e+03  3.1316237062841114e+03  2.3869073584036682e+03  1.7733936103034498e+03  1.0555494454884924e+03  5.1130960520707032e+02  3.1383139317023964e+04  2.2816713749818762e+04  4.5922811582133210e+02  5.3446868421539352e+02  8.7553055692361613e+02  1.5129847801642627e+03  1.6139590561485336e+03  1.8769309346211021e+03  3.6827590976329866e+03  4.1544872812984795e+03  3.7070340882611385e+03  7.1594276990023957e+02  1.0167305446959064e+03  1.2616163852605684e+03  1.3858218532040962e+03  1.2348971505638904e+03  1.3444765843697828e+03  1.6273743471672285e+03  1.2714992449869362e+03  1.1457803587532298e+03  8.8814480999646605e+02  6.7054407018245422e+02  6.3024972397674719e+02  6.1131658423154727e+02  8.8732874776024835e+02  5.8595273061163482e+02  4.1418160366970659e+02  7.0523387463581435e+02  9.1283909644174901e+02  1.2902794236464974e+03  1.4401450313649862e+03  1.5639422504159295e+03  1.8140696527106420e+03  1.5444022665673522e+03  1.7694816257246928e+03  1.4388667090090489e+03  1.1986274188464467e+03  2.0894817220895552e+03  2.4326971721574619e+03  2.0366863654701931e+03  2.5770553593087957e+03  2.7950167996293167e+03  2.8064326952654719e+03  2.9751261590012664e+03  3.2550863996367989e+03  3.0772610076017977e+03  3.0950568176099000e+03  2.7952863821518804e+03  2.8830180162623719e+03  2.6405419906249654e+03  2.1507235981352060e+03  1.7811407622909851e+03  1.7269650119304868e+03  1.7993421579552739e+03  1.8093099288035326e+03  2.1239611463234328e+03  1.9857534938057395e+03  2.2217349445041564e+03  2.4615099857714617e+03  2.1123829080782307e+03  2.4985322438416651e+03  1.7652970601287698e+03  2.6454978951379926e+03  1.9474704163116194e+03  2.3913799685416052e+03  2.1330104805498895e+03  2.2737797981731951e+03  2.5290232641536768e+03  2.1019664775959959e+03  2.1083387776917011e+03  2.2258392390905956e+03  2.1171726016822722e+03  1.7272366143505412e+03  1.9374657998969685e+03  1.7358110780761986e+03  1.9194785813440897e+03  3.0272421878716646e+03  2.5804802091767774e+03  2.8448718562167260e+03  3.1683523830249947e+03  3.0276954530960998e+03  3.4287442270143388e+03  3.0819626168030686e+03  3.9830834885492968e+03  4.1750859073981301e+03  4.1925591315518186e+03  4.0217159840909367e+03  4.2969311809087321e+03  3.6244517345955073e+03  1.2676062221600405e+03  1.3691399842682711e+03  1.1724557175892473e+03  1.3265612907258751e+03  1.3358843420570142e+03  8.8956196137481538e+02  8.0278458449556240e+02  5.4216136374791529e+02  4.7280797978169460e+02  6.3041751210921814e+02  7.3228442794025000e+02  9.4956183785146106e+02  1.1734789688635019e+03  5.9781193719950325e+03  5.5268619913103012e+03  5.1171045373384286e+03  5.8465525442461203e+03  5.6569792174547756e+03  5.5351098882859442e+03  6.4159062315844421e+03  6.1604125156648834e+03  6.8076841559059067e+03  7.2256646936934731e+03  6.8815210570756371e+03  6.5129279889033378e+03  5.6512961699364814e+03  3.3620628567337212e+03  2.9566536118873796e+03  3.4322369696723877e+03  3.1443060038779381e+03  3.3568580222632700e+03  4.3167272441565729e+03  3.4542872950671349e+03  3.4587965846797624e+03  3.8023414030469821e+03  2.9354538899219724e+03  3.3746944337051013e+03  3.3687753520016040e+03  3.0761915051957571e+03  2.7843474324212571e+03  3.1349480025568760e+03  3.7834553625168046e+03  3.9164872635196652e+03  3.6910520783102534e+03  4.6054294429366046e+03  3.3090314266962359e+03  4.0715213319059449e+03  3.8754481713372707e+03  3.1808747072357578e+03  3.0351331350114979e+03  2.7979785949244979e+03  2.8008655393403856e+03  4.4122313610237916e+03  4.6695595077577900e+03  5.1874387278795921e+03  5.0562254381156308e+03  6.2834704515171552e+03  6.1312185444356883e+03  6.1033676424723508e+03  6.4749896044845073e+03  5.0411057596726168e+03  5.5689859486134746e+03  4.5619309846122196e+03  4.8706631653456989e+03  4.8387229367681275e+03  2.4602441212338581e+03  2.9115856335469380e+03  3.1400274275945771e+03  2.9830504227384486e+03  3.3172245495381731e+03  3.4259066328898002e+03  3.4237801151552849e+03  3.8878867215947444e+03  3.7007159145847772e+03  2.9602569055421036e+03  3.1979535536972353e+03  2.6937739362377451e+03  2.8835568473496332e+03  6.5019042307560603e+03  6.0002768084654072e+03  5.2881431455488091e+03  5.9048525501471304e+03  5.9977592307675104e+03  6.0813765350465110e+03  6.2510348950373254e+03  6.8525144897851342e+03  7.8431857608350592e+03  7.3937353541848606e+03  7.7314210399438289e+03  7.7304002511552553e+03  6.0289521088462870e+03  7.7636975991638919e+03  9.1880192805649167e+03  9.7939666837578225e+03  8.7315169242996944e+03  9.9345407487102748e+03  9.6241308476600188e+03  8.8024499664722789e+03  1.1397986682517658e+04  9.1937047965619022e+03  8.3821041010217614e+03  1.0015126137810850e+04  8.8784575291104757e+03  9.6067033613454169e+03  7.6889384827830554e+03  8.1076730426908935e+03  8.1498383191395869e+03  6.4046191960821670e+03  8.6775711946673564e+03  9.2128717930222283e+03  9.9189745687724026e+03  9.5733314105846239e+03  8.2356800104120484e+03  8.2971029474838288e+03  8.0089925493405990e+03  8.1149045796943110e+03  7.3492361319215524e+03  3.4986014562210607e+03  3.4341926178175668e+03  4.0048029058749762e+03  3.9559010994774649e+03  4.5371393620226272e+03  5.0795426289418374e+03  5.0756700032331264e+03  4.6779214983429620e+03  4.3800188535083098e+03  4.7389148053671452e+03  3.5346470635951500e+03  4.0563715483512256e+03  2.6612978630787898e+03  1.2423778297946585e+04  1.2955525251217685e+04  1.0502592510943763e+04  1.3733111961759887e+04  1.2815977422954606e+04  1.1423806366942230e+04  1.3940831711930661e+04  1.2796624584417335e+04  1.3593488694770796e+04  1.6014830951271735e+04  1.5186432968756204e+04  1.4065773166527888e+04  1.1605553390555484e+04  5.9808798309814738e+03  5.6924797745717087e+03  5.5142110627089141e+03  6.0615561412780771e+03  5.7170503010790835e+03  6.5557306422526135e+03  6.0726395140689765e+03  6.6707090844784580e+03  7.5238023507094749e+03  7.4950690840108628e+03  7.7946674229323989e+03  7.0326105652277447e+03  6.3068847712962115e+03  1.0334425213192000e+04  1.1677418143377683e+04  1.1089943103959924e+04  1.1825107730448814e+04  1.2572278078421361e+04  1.1923417445735120e+04  1.3355796900514253e+04  1.3470235374917285e+04  1.0958569802899578e+04  1.1685118311093531e+04  1.2236668270296506e+04  1.0890179162179624e+04  9.8535259106776157e+03  4.4308083175416168e+03  4.4381592955853794e+03  5.3654118135122571e+03  3.7897267627013348e+03  2.0015027174303466e+03  1.9201508043518522e+03  1.8130623163582723e+03  2.0752757358845079e+03  2.6405849753948924e+03  2.6084290583480511e+03  2.5098547843808446e+03  2.6488680186272391e+03  2.6311680230403890e+03  6.0183349892399319e+03  5.7665763946801990e+03  5.2344485623089995e+03  5.4565599978928676e+03  5.0229957642225791e+03  5.6120270230709430e+03  5.3484588338714912e+03  5.3666976507138743e+03  6.8930576016402065e+03  6.3088839483304519e+03  7.4314419071045295e+03  5.8411258785793279e+03  7.5870218916468211e+03  5.9143340311063348e+03  5.9692896477237218e+03  6.6145723330060591e+03  6.1465277878974930e+03  7.4529294363398985e+03  7.8168868549863728e+03  8.6341969573340029e+03  7.9541216364871234e+03  7.8541263235415790e+03  7.3422043703183399e+03  6.8895110598511183e+03  5.8305612955600245e+03  6.0841662968875135e+03  8.7440936004867963e+03  8.2395697417010797e+03  9.1179229246211580e+03  9.3369833224850645e+03  1.0173792837067072e+04  1.0025361504786972e+04  7.7267989486740162e+03  1.1295106085834444e+04  1.0875090936745841e+04  1.1829882371649965e+04  1.0482252394773748e+04  9.8138226939271317e+03  1.0682763613928095e+04  1.6749893330258583e+04  1.5161834335675847e+04  1.5760687072052382e+04  1.4912616133855676e+04  1.6546308394782714e+04  1.5708455593246968e+04  1.6398228327075340e+04  1.7173910836263312e+04  1.6408743277174111e+04  1.7484584327237731e+04  1.7626839406518484e+04  1.7720794154183066e+04  1.4431952264865038e+04  1.0762688051154664e+04  9.9416080730486356e+03  8.4950415748660216e+03  9.3878895971812854e+03  1.0271589826152225e+04  8.8969091777738522e+03  1.0243172161650691e+04  8.0975489386288255e+03  7.8818356792928034e+03  8.9673725546295482e+03  1.0340826177008927e+04  9.8056470237384638e+03  1.1123581459896994e+04  1.3229201994655205e+04  1.3536286034190734e+04  1.5304454775090464e+04  1.6861853097857747e+04  1.3699679163526080e+04  1.4390925379914033e+04  1.4945695827237900e+04  1.2799497061916942e+04  1.4096463328261749e+04  1.4828846322495381e+04  1.3147416782527223e+04  1.3683230275204141e+04  1.3958099041937026e+04  9.5277120983421300e+03  8.1395760317654622e+03  8.6849503404958414e+03  8.1391346111528082e+03  7.6389594342038517e+03  8.2104063963106364e+03  7.2360862376981549e+03  9.5311826711436261e+03  8.8057214927855930e+03  1.0389223683264774e+04  1.0350650033408549e+04  9.7175596195001872e+03  9.8367947569207008e+03  1.0081628699282317e+04  1.0332634458222208e+04  9.5155035755562967e+03  1.0436255015355278e+04  1.1229004489109584e+04  1.1661128252423965e+04  1.2187761250017769e+04  1.2192463673717177e+04  1.1631403922813246e+04  1.1687333862033636e+04  8.7447550224360803e+03  9.9456664437922627e+03  8.9442371031110342e+03  1.9249272566246567e+04  1.9576337288082501e+04  1.9139092415275074e+04  2.2126564062696230e+04  1.9089228713172615e+04  2.0272649193649086e+04  1.9494551369268174e+04  1.7750799432471391e+04  1.9096521702984912e+04  1.9545430389604287e+04  1.8306375866017192e+04  1.9742760403309047e+04  1.8473667509603274e+04  2.2980931025221369e+04  2.2379703747090349e+04  2.4091756149966084e+04  2.2801937259700582e+04  2.5554528306312772e+04  2.2970281965364520e+04  2.5043569487762579e+04  2.2308639763230261e+04  2.2821986416705076e+04  2.4037512342392954e+04  2.4447150435986176e+04  2.0767845392659168e+04  2.0009459526444774e+04  2.5129524369632469e+04  2.2871446385555209e+04  2.1525445818468550e+04  2.5354256019504948e+04  2.4246215662178223e+04  2.4548597369695937e+04  2.4481611382608866e+04  2.5783343484947811e+04  2.6458801876907033e+04  2.9949191155247983e+04  2.8096776416048306e+04  2.6049352886663863e+04  2.6669419704421736e+04  1.3097735896512471e+04  1.1808487469765880e+04  1.4250674132850274e+04  1.3812176539370130e+04  1.2673024041667983e+04  1.2956858843270902e+04  1.1320124954973919e+04  1.2118546805266014e+04  1.2224583749606754e+04  1.1507235485307707e+04  1.1334635497697476e+04  1.1504123545842491e+04  1.1391379733220299e+04  1.6963947135046539e+04  1.3589619621300531e+04  1.7549686144575291e+04  1.7360885596160548e+04  2.0274475464488329e+04  2.0867342373149975e+04  2.0816993292080937e+04  2.1268284729946979e+04  1.7908784746852056e+04  1.9319155597905152e+04  1.9173568788809302e+04  1.8168358414674934e+04  1.5066394168535138e+04  1.4528605500086580e+04  1.4060299776116917e+04  1.3155277156190341e+04  1.4876354121727814e+04  1.5654522295623881e+04  1.6858329199821404e+04  1.7420906597065910e+04  1.7167087976577361e+04  1.4355249879506358e+04  1.5091726012127567e+04  1.2851976042626949e+04  1.2587218883596997e+04  1.5793969996309166e+04  1.2745351215841676e+04  1.3427544510021462e+04  1.3690737294195551e+04  1.3465620018449297e+04  1.4424254780848953e+04  1.6385301892330957e+04  1.6737355842460303e+04  1.5725877994744864e+04  1.8600743489333596e+04  1.4507749423509509e+04  1.2958675323475427e+04  1.2144899195780523e+04  1.2947748201007666e+04  2.4907318556501530e+04  2.8174271194425692e+04  3.2188554641169256e+04  3.2718606692871552e+04  2.9033340919369210e+04  3.0412759466358690e+04  2.4764984398546338e+04  3.0231941760469806e+04  2.7399939011440449e+04  2.5925447779829916e+04  2.3469665776922589e+04  2.7193144915188983e+04  2.1920887752804407e+04  1.5970145638567488e+04  1.6163096289007299e+04  1.6809707653741567e+04  1.5528906590434190e+04  1.8674284015954439e+04  1.7247674146262791e+04  1.8185524144080373e+04  1.8655879667190973e+04  1.6288634081379872e+04  1.7219577399794045e+04  1.7156756517156264e+04  1.5566976764188765e+04  1.6616292758803789e+04  2.2235555685914780e+04  2.1639242879543170e+04  2.2872226201304209e+04  1.9647281702211250e+04  1.8555534275572620e+04  1.6402174287450431e+04  1.7968214451609227e+04  1.6143945334363023e+04  1.4878024334195919e+04  1.6533200856105883e+04  1.6657066044641335e+04  2.1650510546936679e+04  2.1345066585085337e+04  2.7157572925284192e+04  2.4060147783586075e+04  2.7080505462705456e+04  2.4591083550683215e+04  2.3503150919325049e+04  2.5604272332472574e+04  2.8053706113503213e+04  2.8497176673483831e+04  2.4160240430907539e+04  2.5497332815752357e+04  2.7919454562578740e+04  2.4404856328719932e+04  2.6348182026639533e+04  2.0047036042353073e+04  1.8214039749070009e+04  1.9105738178672374e+04  2.1328605865195634e+04  2.1503768714396971e+04  2.0889909601304633e+04  2.0871961142974182e+04  2.1462641552423407e+04  2.3451513087001495e+04  1.8204011520153254e+04  2.0902926041593240e+04  2.0082608070229056e+04  2.0145919042963687e+04  3.2059740122951524e+04  2.9171025623964706e+04  2.9612511816916915e+04  3.6271469300580851e+04  3.5283434881037159e+04  3.1148020813419113e+04  3.5744828921527289e+04  3.0647412703939852e+04  3.1323651394749118e+04  3.4515255697317771e+04  3.2625887091747281e+04  3.2315060710371406e+04  3.3711871347698798e+04  2.4918309594091803e+04  2.8612504490853407e+04  2.8326657788510143e+04  2.6629381088080027e+04  2.6000566244892354e+04  2.8066160515830969e+04  2.8656873255206676e+04  2.5849985832107519e+04  3.2236234288477048e+04  3.1038093866114901e+04  3.2618171146985187e+04  3.0896753600070933e+04  3.0749957619565201e+04  3.1361975799764081e+04  3.1369572239721307e+04  3.2583559189395128e+04  3.5256664854704351e+04  3.5601114870141573e+04  3.2211977826907914e+04  3.4149200656308138e+04  3.0894510795226703e+04  3.4331346111390965e+04  3.9642856382480728e+04  3.8852192137945414e+04  3.4021635857599358e+04  3.5830879010124852e+04  2.3874877095214135e+04  2.4823739938341067e+04  2.1385393072433933e+04  2.0323750221671402e+04  2.3045089249986955e+04  2.1807515833910857e+04  2.3463104524986149e+04  2.1477031955968254e+04  2.2066817853030268e+04  2.2634182367371890e+04  2.1976107224025101e+04  2.4744564080805078e+04  2.4286399852929553e+04  2.9105110693823262e+04  3.0984350574771684e+04  2.8698579410741535e+04  2.7585768834429837e+04  2.6666152509328047e+04  2.7744733601098615e+04  2.9922046788862037e+04  2.5842724383789333e+04  2.9408439594513162e+04  2.8201802249216740e+04  3.2151235002788089e+04  2.9855274010315221e+04  2.9685565742198691e+04  2.6920473866351083e+04  2.6927843123411432e+04  2.7812338600104016e+04  2.7451757044943010e+04  2.7256822694104350e+04  3.1885986581871224e+04  3.0549662769149614e+04  3.2709789329026818e+04  2.9800849432490693e+04  3.1859489982999683e+04  2.6776401820569223e+04  2.5771226253325196e+04  2.7688597457682852e+04  3.7152819985674934e+04  3.4668192889964193e+04  3.6314771969091700e+04  4.5442175174323369e+04  4.4750583336740732e+04  3.6274212548223186e+04  5.0912218075820907e+04  3.3179805269954602e+04  3.8159956948951352e+04  4.0715183653188848e+04  3.8262760570443810e+04  3.8213280794564736e+04  4.0047233508925900e+04  3.5855492520020722e+04  3.0213651063005262e+04  3.4088523409419744e+04  3.2974035071060898e+04  3.3069041059479488e+04  3.3854834137533617e+04  2.8443027873612227e+04  3.2203708634268016e+04  3.4426285317514252e+04  4.0915949418574106e+04  3.8634259618138065e+04  3.6182624449794901e+04  3.4473351012214909e+04  3.0981102587456007e+04  3.6126766448308219e+04  3.8217746763881318e+04  3.2028860296298139e+04  3.1795651578958139e+04  2.9161307158328276e+04  2.4977875708265990e+04  2.6131344738643973e+04  3.4556424321252736e+04  3.1186232275268161e+04  3.2805274722913993e+04  2.7538200776318641e+04  2.6829375450699026e+04  4.4377076519116272e+04  3.8347833653773065e+04  3.8398075046638354e+04  3.7693412502294697e+04  3.3608999116560830e+04  4.1028665286023752e+04  4.5338311615113103e+04  4.5760388243781344e+04  5.1244789513552940e+04  4.0761864961877000e+04  4.0221673157601857e+04  3.8068366576571170e+04  3.9373008868781653e+04  3.9239683950486142e+04  3.6551412576953109e+04  4.4892909096973912e+04  3.6000559785132878e+04  4.1651679835438117e+04  3.7174328988383284e+04  3.9890712570881864e+04  3.7910150049305164e+04  3.7607732835499308e+04  4.2005748396902920e+04  4.1420163311134274e+04  3.9370574476145121e+04  4.1901610658379577e+04  3.1950290481519856e+04  3.5243565961586253e+04  3.3858129582910507e+04  3.3449859240540987e+04  3.1650715060125025e+04  3.3250194707296556e+04  3.6193456669400068e+04  3.1814053777616955e+04  3.6031371653131951e+04  3.7227508541441362e+04  3.9963812145558171e+04  4.1926128640787705e+04  3.5252601066876305e+04  3.1357279496740532e+04  3.6497331874092451e+04  3.9659015207343633e+04  3.2403949411568010e+04  3.7891322098062970e+04  3.7196916948139842e+04  3.7112095742120211e+04  2.8449546481916921e+04  3.5172974940425964e+04  2.7025197688339736e+04  3.3100002007872114e+04  2.3016448287176405e+04  3.5605285318010283e+04  3.2776815278687922e+04  3.5345445588885435e+04  3.1253059552502789e+04  3.4799589048209113e+04  3.2625832562621385e+04  3.4129114934024190e+04  3.8869613749565717e+04  3.2257682328088042e+04  3.5469505754417551e+04  3.3963444312176354e+04  3.5870518573252804e+04  3.9504507468060561e+04  3.8002698773483091e+04  3.8428234968695717e+04  4.0700789933952714e+04  3.7559767016973470e+04  3.2931304993591402e+04  3.7420407333522766e+04  3.4302478178422178e+04  4.5928527300797337e+04  4.3641922166038472e+04  4.4856503296792202e+04  4.5454592436381325e+04  4.8226596469374068e+04  4.7278917204215526e+04  3.9822536598800551e+04  4.2970375542534181e+04  4.3288185995002481e+04  4.0533406635145977e+04  5.0882141024696612e+04  4.4787935670053019e+04  4.4826271485362602e+04  4.8880186115359647e+04  4.0324372211277550e+04  4.0913121873532829e+04  4.5601434737654214e+04  4.3129112863464266e+04  4.6175169574230873e+04  3.9953567010766870e+04  4.6653932912085569e+04  4.0660183903562807e+04  4.4325069247820422e+04  4.3775104663709993e+04  4.3190382198293228e+04  4.0283357390254358e+04  4.2098451475080175e+04  3.4815094906366292e+04  4.1927909465795368e+04  4.4862874586329846e+04  4.4151158536738854e+04  5.0938051231530029e+04  4.4673612521020033e+04  4.0468168957144939e+04  3.6071205025067444e+04  3.7878282006002279e+04  3.7213929433450088e+04  3.4730035222847757e+04  3.0174726352200421e+04  3.5292811575925341e+04  3.3372089211181745e+04  3.5343358120634519e+04  3.1014253603165635e+04  3.9881701029782358e+04  4.1661910653264116e+04  3.9832338416700666e+04  4.8144125905952737e+04  4.0371184018675187e+04  4.6062083511216639e+04  4.1268746483102943e+04  4.3004159153555287e+04  4.6237651824654531e+04  4.7162367783693218e+04  4.7446538869336495e+04  4.5233460907657398e+04  4.2472473882998886e+04  3.9962526008517321e+04  4.0041749231492220e+04  4.7925881505384139e+04  4.3429350223574242e+04  4.1539048260123505e+04  3.8484728527040468e+04  3.4365781306469202e+04  3.2801860580713401e+04  4.4999023743727572e+04  4.4945775171715002e+04  4.2911779555011504e+04  4.4109888015918339e+04  5.1928601691844437e+04  4.1104885372402205e+04  4.5741532341946047e+04  4.4268288438398209e+04  3.3702165142056612e+04  4.3634026668991610e+04  3.6909645340101459e+04  3.2039326643584587e+04  2.3737789064417670e+04  1.8840768679194876e+04  1.6193473720832590e+04  1.3361224918560894e+04  8.4248280394927351e+03  3.0951792312215725e+03  4.2324524410161539e+04  3.4369369258658779e+04  2.6893299158054673e+04  1.8153389678476749e+03  8.9987338869164864e+02  7.0684013138171383e+02  9.2992920422694351e+02  1.3821272061927493e+03  1.3547236956055085e+03  1.7842621297959120e+03  2.0531298330862437e+03  1.5200203190180516e+03  2.1233940459930886e+03  2.1278756449071425e+03  1.4946519634774577e+03  1.8692417744792695e+03  1.4647598642843109e+03  1.0212472935829984e+03  3.2823316662473230e+03  3.0418457974611892e+03  2.2795753754777274e+03  2.4671346249650383e+03  3.2192489043378878e+03  2.6578584691905789e+03  3.6053278694564265e+03  3.5940601584930328e+03  3.8824253085924502e+03  4.3420734221289995e+03  4.0505982809775960e+03  4.9025289974579737e+03  4.9907475573258125e+03  3.3493910557737340e+03  4.0983047168615003e+03  3.8045325126473858e+03  3.6543484011162495e+03  6.3875330348716507e+03  4.5965554458911420e+03  6.0478266167689662e+03  5.3484660472481901e+03  4.5698126107778171e+03  5.7857199142582749e+03  5.4838489796452577e+03  5.9016464314578743e+03  6.9885740699175740e+03  6.5447241376044922e+03  7.9001116549220296e+03  7.3537267925476281e+03  7.5369457873186766e+03  8.1309652425709164e+03  7.1995079133216104e+03  7.3895620591384804e+03  7.1693095051551554e+03  6.4291195105787438e+03  2.7916498415596520e+03  3.4831525423029002e+03  4.0343457953663242e+03  4.0514440359168966e+03  5.0742375694846814e+03  3.8509578692368809e+03  5.7568722743319604e+03  5.3133846900645258e+03  4.6749080331602290e+03  4.4324621716370930e+03  3.9088153413564542e+03  3.7307059114470062e+03  3.8915588955963808e+03  3.1658233899125694e+03  3.9404887270479012e+03  3.1252523972891222e+03  2.6820457040129500e+03  2.3135207742522084e+03  2.3772321888329134e+03  2.4877144251849209e+03  1.5397549664216701e+03  2.1547163166248042e+03  2.5967365304741948e+03  2.2578589293756659e+03  2.5064901729380240e+03  2.6696467742261129e+03  2.8538057336009979e+03  3.1542974383545056e+03  3.1512559289116703e+03  3.3683688307895691e+03  5.9536200892433271e+03  6.7590678019526677e+03  5.6929889578211314e+03  7.1821024468303913e+03  7.8137808440045155e+03  9.3939017452897915e+03  7.6411206703365460e+03  8.3578060308602817e+03  8.5128785747114543e+03  7.5489140036250383e+03  7.6742547194161052e+03  6.4905440116463305e+03  6.9916507808040178e+03  6.4010090948249417e+03  5.6845726597055173e+03  6.6958833375873746e+03  6.1370492318627166e+03  9.9079893195225504e+03  7.8415355381061627e+03  9.8099551019737719e+03  8.6021693681430806e+03  8.3178883933462839e+03  8.9737834508166197e+03  6.8114670644216485e+03  1.0394833498620286e+04  1.0242640073530161e+04  1.0186211566352289e+04  1.0242584000351913e+04  1.0964187962362164e+04  1.2264946113099044e+04  1.2057909363516483e+04  1.2115689689430605e+04  1.1215738764280310e+04  9.8362579878150009e+03  9.9799977953568341e+03  8.5975789125534757e+03  9.9054336632731356e+03  9.7223649939561019e+03  9.9548243640059754e+03  9.8637919180136669e+03  1.1698964905583658e+04  1.1393794315272235e+04  1.2468057954239786e+04  1.3130934867010505e+04  1.0042654923335247e+04  9.5990119906523269e+03  1.1348379189757516e+04  9.6445782831103916e+03  9.0137469056078480e+03  8.8692874012476932e+03  9.5309311578542620e+03  9.6114420494131173e+03  1.4731881819707649e+04  1.4186197550781771e+04  1.5607057353006918e+04  1.5840154090689461e+04  1.8135431101677463e+04  1.5691757597190457e+04  1.6391912396923082e+04  1.6767842402031947e+04  1.4065762668407491e+04  1.3880048974648240e+04  1.5113384110613297e+04  1.5960767154191377e+04  1.2790319928410596e+04  1.2738937944963960e+04  1.4696929708293113e+04  1.3577954053142130e+04  1.2971363551678049e+04  1.3108592432998190e+04  1.2317366403468222e+04  1.1950898770516313e+04  1.3450935477985457e+04  1.5943053488635440e+04  1.6343851904233938e+04  1.5401919966564594e+04  1.4250984855859966e+04  1.6318678761812878e+04  1.5322351912390475e+04  1.3516287086685890e+04  1.4903236235907714e+04  1.5125278167902130e+04  1.3426478533908115e+04  1.1598126717002659e+04  1.0448563992704501e+04  2.6377126312275603e+04  3.0200642875025176e+04  3.1179250367803637e+04  2.6063960137850627e+04  3.4128206697843052e+04  2.9128543695524899e+04  3.1769007129115038e+04  3.0343230536780226e+04  2.8663521193830067e+04  2.5704038531180318e+04  2.6793055397409844e+04  2.3567954296371267e+04  2.4279929507797366e+04  2.3945614881420945e+04  2.0645178086642853e+04  2.9039623914870641e+04  2.1876391189649039e+04  2.1419603707312381e+04  2.3043161896893609e+04  2.2742243267560054e+04  2.0236148974157721e+04  2.0669975149052425e+04  2.1811902372254750e+04  2.1216138801313999e+04  1.8662777401488434e+04  1.9224920067098283e+04  1.7990531957323485e+04  1.7882112865110797e+04  1.8008593518333204e+04  1.6281372962573145e+04  1.6961087297059032e+04  2.3822520114616502e+04  2.0108441544459656e+04  2.5910360121976195e+04  1.8379850755062274e+04  1.8381682014394599e+04  1.9430109302496472e+04  1.8433659534562263e+04  2.1660342545367166e+04  2.1762980457204736e+04  2.0839826612344219e+04  1.9493050408618292e+04  2.1025133749782661e+04  2.3369916758143056e+04  2.2399771552786489e+04  2.0471814096219929e+04  1.5260355352341619e+04  1.8647781253344929e+04  1.6816019154307491e+04  3.7398127063626576e+04  3.3303479810289384e+04  3.3606804428740550e+04  3.0005379353799468e+04  3.2566603582949403e+04  3.3380213482234059e+04  3.1462946816229443e+04  3.6116536504619224e+04  3.0267470914447495e+04  3.5901620813442554e+04  3.4968815622742637e+04  3.8017423605675838e+04  3.4809182321994580e+04  3.6100133427596869e+04  3.4785581197679028e+04  3.0554305531463902e+04  3.7586867498775697e+04  2.3188931711297380e+04  2.8746055500328002e+04  2.5593235159195683e+04  2.6396752234612872e+04  2.7759870607203255e+04  3.1900912000392149e+04  2.6521417922461118e+04  3.1964214917134781e+04  2.8215080435205804e+04  2.8871549941148529e+04  3.2471337077382894e+04  2.8284125893296303e+04  2.7762323567475200e+04  2.4381252206277979e+04  2.6609156740545746e+04  2.7610263342068236e+04  2.3796026589750276e+04  4.4694017504062133e+04  3.9590029517728966e+04  4.3252557774243876e+04  4.2779046246977210e+04  4.4250761974803063e+04  4.6891032815219878e+04  3.7138217610546148e+04  4.4561863420792011e+04  4.0524028410423853e+04  4.4435112729011540e+04  4.0802019599236533e+04  4.3520364184368344e+04  3.8603897295880284e+04  4.0842936639798812e+04  4.0471844977371358e+04  3.8592977015300094e+04  3.5102971333669077e+04  3.4459954594169707e+04  3.0947649181055000e+04  4.0163970565380165e+04  3.0985765436139918e+04  3.8661157574343466e+04  3.4810157233530343e+04  3.2371724409210758e+04  3.2336120994168487e+04  3.4865134463419650e+04  2.8039088888550727e+04  3.1577392493780710e+04  3.3911556492636068e+04  2.9651410792061401e+04  3.2732376414448750e+04  3.9538393973958053e+04  4.1214104019000777e+04  3.2131478540573687e+04  4.6411099982616463e+04  4.2482072510989965e+04  4.3166455576769011e+04  4.0559630919870644e+04  4.6787180155724418e+04  4.4217856736663220e+04  4.7224672854105265e+04  4.3729673311794271e+04  4.2786204315528412e+04  4.4368894114662544e+04  4.6677303874903955e+04  3.9931806236389195e+04  3.9665000675375282e+04  4.4858963754326673e+04  3.9046569522157733e+04  3.7454742491679564e+04  3.5836162355345179e+04  3.5616708337910059e+04  3.3235220429463247e+04  4.0044152652991157e+04  3.7474655088770422e+04  4.3949455221683122e+04  4.1093896142138525e+04  4.3438805446162507e+04  4.3146686156760908e+04  4.1870709912292659e+04  4.1271328291915692e+04  4.9089212421362055e+04  5.3004674362333790e+04  4.6349485229906437e+04  4.3226082752538474e+04  4.3506005633919864e+04  3.8095660021271171e+04  3.4791125488827798e+04  4.3253282752077874e+04  4.1762464203338670e+04  4.4051229100387027e+04  4.1342463204725682e+04  5.0201333572313983e+04  4.8225121334559008e+04  4.7113570725312260e+04  4.6999718370912415e+04  4.5917555292970079e+04  4.7151152637877683e+04  2.9613916912016430e+04  1.1785787705249646e+04  5.0481546445777667e+03  3.7864881799704257e+04  1.7765123500295551e+04  2.6795132737448577e+04  1.1836936675264292e+03  4.1128939788523108e+04  3.3105587098216798e+04  8.2824809743147598e+03  5.3470973864124671e+03  1.3768832205893782e+03  5.0757710062497631e+02  1.8799849737596878e+03  4.1254961477669294e+03  2.9324277375187809e+04  2.1974259586731532e+04  1.6659918461807796e+04  1.0560013891638451e+04  1.3633425306732770e+04  1.1229818584790751e+03  2.4582437967895307e+03  3.8215255656644640e+03  3.1469249998654759e+03  6.4729151254702738e+03  7.6291548614716303e+03  4.0151171783528193e+03  3.0151702737854507e+03  2.7958971030137200e+03  6.3813635182402677e+03  4.5056207448051946e+03  8.6515226276039830e+03  1.0629964965088879e+04  1.3252119890958156e+04  1.3929334028987338e+04  2.0082827720182449e+04  1.6322374516415761e+04  1.1958329387117448e+04  1.5217689422450632e+04  2.9301373068786645e+04  8.6766261668067873e+03  3.0467164184385005e+04  2.3593231194858214e+04  1.6604465891533135e+04  5.1690215252800390e+03  2.3906003511045030e+04  2.5944530906928871e+04  3.3339064280907391e+04  3.2054024384920278e+04  3.8972795458427732e+04  2.3759767043779044e+04  2.9585477873474127e+04  4.4567897190240430e+04  4.5515978277692528e+04  3.8991195638358084e+04  3.2876734051011219e+04  4.4309363123750591e+04  3.3043580674794066e+04  4.0790459665845599e+04  4.4890118503909122e+04  4.3915884609631226e+04  4.7088089332271455e+04  4.0230558939417431e+04  4.4363320760920920e+04  2.2146696904147713e+04  8.4369057217255595e+03  5.3463709893670330e+03  4.9576661081508073e+03  8.6342251143588546e+03  1.8028962763451913e+04  3.7904134918102078e+04  2.6880355040992235e+03  2.9068232658537422e+03  2.1627336732203923e+04  2.4631598802557019e+03  9.0840000229959714e+03  3.5655129635519283e+04  2.7624675366037267e+04  3.2697851138969574e+04  3.4352448497022233e+04  3.1846648496920880e+04  3.1460989022728590e+04  3.4534655805441391e+04  3.5845835596637466e+04  1.9101508455164487e+04  3.6475567034884662e+04  2.4551394225131371e+04  3.1578071302018630e+04  3.3777621899369842e+04  3.4692826560975984e+04  2.1403747459317317e+04  2.3862271770137293e+04  2.8708257197029732e+04  2.7431113137087024e+04  3.1165626789241323e+04  1.8878022521163897e+04  2.0287821103913149e+04  2.2166205311896894e+04  2.3128660961807753e+04  2.4849351418281007e+04  2.2976187230732397e+04  1.7927613333417321e+04  2.1364385869708462e+04  2.2448359342690364e+04  2.1565683722100279e+04  6.4139903233113841e+02  6.6657833342924562e+02  5.6568985292195759e+02  8.4635235105418951e+02  1.4144368740106763e+03  1.8846298820591699e+03  2.2790858807446289e+03  2.9270285365039831e+03  4.1060985993907825e+03  5.2143673346711494e+03  5.1823514866586347e+03  5.2938478360553690e+03  6.2205892534283221e+03  7.7993554673318968e+03  7.4607600696082100e+03  9.4365539684974847e+03  1.0596254014281556e+04  1.0262571355025715e+04  1.1950080289248473e+04  1.3658858695767785e+04  1.3629792637731503e+04  1.5485746944402112e+04  1.9594723078773928e+04  2.2341543248552658e+04  2.4115953722972630e+04  2.2789268557173458e+04  2.8550416401904466e+04  2.6965802004590780e+04  2.9999614071916694e+04  3.1111276438845867e+04  3.0170892603615077e+04  3.2285052261549583e+04  3.4918881334415346e+04  3.2271182049993738e+04  3.9625297917051452e+04  3.3291572566937444e+04  3.0477398472646099e+04  3.4094748668853528e+04  3.5797777044425813e+04  3.6830260799201700e+04  2.8532826241800398e+04  2.7430365948033548e+04  2.7671207844153902e+04  2.8034842513238593e+04  2.3381123981051409e+04  2.4347790557858123e+04  2.0447966439851349e+04  1.8171437150607264e+04  1.5880603313111989e+04  1.5333901183308501e+04  1.8654824966063712e+04  1.6148577214399151e+04  1.5259085116609984e+04  1.2436432690476746e+04  8.0789876354331800e+03  8.0947365963668890e+03  6.4278327831881079e+03  7.6578853115166057e+03  6.5430757088560104e+03  5.6095273252347879e+03  3.6680960214227875e+03  3.5983257051573601e+03  2.9087958776718501e+03  2.3365552449225747e+03  1.6544922142669036e+03  1.1291634825909657e+03  2.3949799053437186e+04  8.3389371165096441e+02  1.2116571256655943e+03  1.4033895478151908e+03  2.1187927773513693e+03  3.0384176910315273e+03  3.4710313236201659e+03  3.6198095921163258e+03  4.3495447048531250e+03  4.9730837633199544e+03  4.9774781435644582e+03  6.3712671683464732e+03  6.5446288024568230e+03  6.9151116848405754e+03  9.2809626004806851e+03  1.0039196593394548e+04  1.0993805519581809e+04  1.1546444534234073e+04  1.3145003638031532e+04  1.2810110994187025e+04  1.8292965094925537e+04  1.8776222002727027e+04  1.7740992655713522e+04  1.9872179692000343e+04  2.1030404182672479e+04  2.2253879319683587e+04  2.5035470068418668e+04  2.9224706488144038e+04  2.4591816106621438e+04  2.7145729834189395e+04  2.8909617959732055e+04  2.7907036908224170e+04  2.6282396027980118e+04  5.7202719060628363e+02  4.4955227335734764e+02  7.5876202798664519e+02  1.0035983970662111e+03  1.6536307244937550e+03  3.9179197408418677e+03  8.1350448408699128e+02  1.4736936990522329e+03  2.5712917793672391e+03  3.6045172812622363e+03  5.9428322703985714e+02  2.5294733785707390e+03  1.4122907325074793e+03  1.8531947070382209e+03  3.4675647426693522e+03  2.3872602337701201e+03  7.5804651628740567e+02  1.0396175027288930e+03  2.2407561341717151e+03  1.8564291346786097e+03  1.2695692073193693e+03  4.3414368177500248e+04  3.9451881244386379e+04  3.9322074525374570e+04  3.5400388940281708e+04  3.6512762680107699e+04  3.3707604322114894e+04  2.8848268500964823e+04  2.5506303759061931e+04  2.5134299819885076e+04  2.2368139551607626e+04  1.7212104899607519e+04  1.4210992715447004e+04  1.4596459286438825e+04  1.0745200537718798e+04  1.0017222378963281e+04  8.6260630765369915e+03  7.4945364511054513e+03  5.8180940595464845e+03  4.4597859447131877e+03  3.3569503045684969e+03  3.9138823429889062e+03  2.6140975438742564e+04  2.0280763355134633e+04  3.5831843622180320e+04  4.2062626119245950e+04  4.0334206514178899e+04  3.9604890351152862e+04  3.4142915670972630e+04  3.1059331254181463e+04  3.5607011129956321e+04  3.5960532648307053e+04  2.7298307177585364e+04  2.9865042600766054e+04  2.7187602372533427e+04  2.9515744037735680e+04  3.0945049997661994e+04  2.4300437407113022e+04  2.2365774109504266e+04  2.0391730440926804e+04  2.3299368992747357e+04  2.0160862179614793e+04  1.7081092103140341e+04  1.8557745904684703e+04  1.7517212526071235e+04  1.3426582565904819e+04  1.3312026355538721e+04  1.2107714308166325e+04  1.3096882296746826e+04  1.2573991800966469e+04  1.0490435615222108e+04  9.0194917792944689e+03  9.7129971618097716e+03  9.7115734240013899e+03  7.7540934147786538e+03  6.9865998462764292e+03  6.8383248311216585e+03  7.0736403752128808e+03  5.5900749486588402e+03  5.0302805371555260e+03  4.1075509969576733e+03  3.7641958624749309e+03  3.4451065358691053e+03  2.6280044993883062e+03  2.5966069577129219e+03  2.8279541982650935e+03  3.9906637869857864e+03  3.7144686776047085e+04  3.7509765655192765e+04  3.8560480503605948e+04  3.1769806478836133e+04  3.6579861426020885e+04  2.9501545811843531e+04  2.8069688486842311e+04  2.6983466127051233e+04  2.1929355793683098e+04  1.9541493376232233e+04  1.6335494026307948e+04  1.4392761449487265e+04  1.2969810923885840e+04  1.1831891442956474e+04  8.2315741540394501e+03  7.3926508963235183e+03  6.4188872037594510e+03  4.6939563331279069e+03  3.9006014508786916e+03  3.0372488951938853e+03  4.0696783115438161e+03  3.7208963943217886e+03  2.4124519776419645e+04  2.3056546659691245e+04  2.4936944721297816e+04  2.6205942824438982e+04  2.4918252504401615e+04  2.6153682074623190e+04  2.7811864477644747e+04  2.0823197732093315e+04  2.5649770707822019e+04  1.9106758068472660e+04  1.7333793366019785e+04  1.5241509661028491e+04  1.5474610001357667e+04  1.3670105508349334e+04  1.1188882831381450e+04  8.5110332140780120e+03  8.8788765035969991e+03  7.1245873073933190e+03  6.4894046378586736e+03  4.3358357293455229e+03  4.6245274889682169e+03  4.3280757091305286e+03  3.2186223312779193e+03  2.8046021161235443e+04  2.8044079486888801e+04  2.6962482565232065e+04  2.7851898168359327e+04  2.6702054141538523e+04  2.5152166215214300e+04  2.2658769249298319e+04  2.3539082113350200e+04  2.4426996981841410e+04  2.0618794947432347e+04  1.7055164212752814e+04  2.0467194847226503e+04  1.9391923833049113e+04  1.6948747023931850e+04  1.5178814071861298e+04  1.6686246324100826e+04  1.5614924010129263e+04  1.3660207270452893e+04  1.1751694541246286e+04  1.1715054071812996e+04  1.0268347297270271e+04  9.9369399222779048e+03  1.0105635852613756e+04  1.0525591885977339e+04  9.8305009173086328e+03  7.4979776824771825e+03  9.8737450545664760e+03  8.0462339273147563e+03  7.1767665947622600e+03  6.8942593284417899e+03  6.6513536547188278e+03  5.7308866516363687e+03  5.1863291159418368e+03  4.9910148406534345e+03  4.4427241723308716e+03  4.2960850841056881e+03  4.2751197218380303e+03  3.4285980803424231e+03  2.8473322408927388e+03  2.5884725435056735e+03  2.3798443497662979e+03  2.5689496360016823e+04  2.1136761917927382e+04  1.1626354329704471e+04  1.1394704161002956e+04  1.5838384954627001e+04  1.4887049894401134e+04  9.9339882955438552e+03  9.8843011375934784e+03  8.1741420211337081e+03  6.6800707160974744e+03  6.0927532741089881e+03  3.2639860845189751e+03  3.0121759222825608e+03  7.1780463085676847e+03  1.0355173820832657e+04  9.3493718493628021e+03  4.6674710018467646e+04  3.4890974577926761e+04  2.8900617860768027e+04  1.3938580757893324e+04  1.1252846301618443e+04  3.0648807431292203e+03  3.3041981581933331e+04  2.1255970031751356e+04  2.0207522966062029e+03  2.0187694356906927e+03  4.2654756303055601e+03  4.1799666911504301e+03  4.6530243054905231e+03  4.3869178053457799e+03  3.9618318410977772e+03  3.3245753319332239e+03  3.0461339911237810e+03  2.3460251841006043e+03  1.7302700882040556e+03  1.8055746377989060e+03  2.0950033245025784e+03  2.3743463107865659e+03  2.5619858847373112e+03  1.6051246567708722e+03  2.4957877496468323e+03  2.1485932535817115e+03  1.9528919285707277e+03  1.3679484022597487e+03  6.8825946134445780e+02  1.4446926669138491e+03  1.5008157282877041e+03  2.8454990906147891e+03  3.6539323641161573e+03  5.9514589359918382e+03  5.4957155259709580e+03  4.5214287947057783e+03  4.6112080117347159e+03  4.0677750114118817e+03  3.4610889327511063e+03  3.1736683738936167e+03  3.0268212300045193e+03  4.7810149024605407e+03  4.8610187252542109e+03  6.2602942609724005e+03  7.4816134736822842e+03  7.6906435227784677e+03  8.0688834135721745e+03  5.5282337039586610e+03  8.7398461264164744e+03  4.0021875529674444e+03  8.9037441902696755e+03  6.2893272491217103e+03  9.4228494806304316e+03  1.1362731751081114e+04  6.7364464447696546e+03  1.1129606568881294e+04  1.0161816300966913e+04  9.3140841726030048e+03  9.3707138122929609e+03  7.9424073344179114e+03  8.7910708730008901e+03  1.2207582417905927e+04  1.1744382257268115e+04  1.1838259132581194e+04  1.4899031924589832e+04  1.4167127379444883e+04  1.4739466372908864e+04  1.4649254305346858e+04  1.3892692683534280e+04  1.2541518210743072e+04  1.1689707589375661e+04  1.3275193252732357e+04  5.3498916856526348e+03  5.7927759044419854e+03  5.1957590122252595e+03  5.5326642828119375e+03  5.8489045410037697e+03  7.6516923334525263e+03  6.4945745748476547e+03  6.5823261825481304e+03  8.5757776964223631e+03  8.5741818142603970e+03  1.5013853992422612e+04  1.6201492824931969e+04  1.4788376800719911e+04  1.5910668802140081e+04  1.5366585460539820e+04  1.8173513308545796e+04  1.9769071289207357e+04  2.0324509213782072e+04  2.4980656147220358e+04  2.0821409706824725e+04  1.9309032144301178e+04  8.7185211912031064e+03  8.5014875121854602e+03  7.5226111271912423e+03  8.9886099330266261e+03  9.4276059051668890e+03  1.0228900541141315e+04  1.1284882897199852e+04  1.1992076521473680e+04  1.3455602209466337e+04  1.2368776537884311e+04  2.4677275294542676e+04  3.3172626293013614e+04  3.3847680131668872e+04  2.5316809372308770e+04  2.9692616610141169e+04  2.6982392124950558e+04  2.4657643559370674e+04  2.5409809861008394e+04  2.1912814521049266e+04  2.3606545410128350e+04  2.5028713495724409e+04  1.4780977898250056e+04  1.3202843816774957e+04  1.5787279566058729e+04  1.5727248131488204e+04  1.5300818200965799e+04  1.1425049588086395e+04  1.3562325301971296e+04  1.3101932228720470e+04  1.3542711294345021e+04  1.3744044383164704e+04  1.5936860680208069e+04  2.3643246264030124e+04  2.1852654404459310e+04  2.2090172447555837e+04  2.0631652390030540e+04  1.8842803750809871e+04  1.7930975569718470e+04  1.5841349535734098e+04  1.5297141710937189e+04  3.1263975676852664e+04  2.0534527303216379e+04  2.9508661555049759e+04  3.4422050033518382e+04  2.5218310612072964e+04  2.7470686282096674e+04  3.8077256043229696e+04  3.6153683931976055e+04  2.7252408121835389e+04  3.5857459917031425e+04  2.8224128951861028e+04  2.6428709343836050e+04  2.8741152665243804e+04  2.7285589739811432e+04  2.0257161848315402e+04  2.7810434218292517e+04  2.8097927890778865e+04  2.3544748243319522e+04  2.2377984371757288e+04  2.9075651123736097e+04  2.9774383176688269e+04  3.6340249521801248e+04  2.7188822768123551e+04  3.1425855970022560e+04  3.2403619181683775e+04  3.2715591493311753e+04  3.5993004296061532e+04  3.2605264682627549e+04  3.5693179956322048e+04  3.7947004598693515e+04  3.7459026000513659e+04  4.0584412121824476e+04  3.5078707726990426e+04  3.5430043337500356e+04  2.7254011779424876e+04  3.0772741064820479e+04  3.8842114514261135e+04  3.1483391065672076e+04  4.5194449613322882e+04  4.0586301097696851e+04  4.3474377177985036e+04  4.1189095258576155e+04  3.3144466681890837e+04  3.3074366582463597e+04  3.3568135469707457e+04  3.0472362813635540e+04  3.3500242895538409e+04  4.2575712861888918e+04  3.1047198401697198e+04  4.8014845976439610e+04  4.2020027792537709e+04  3.5611603765703512e+04  3.7765618340510518e+04  3.5884882342382632e+04  3.9791000132309360e+04  3.7912218860701032e+04  4.4535578450911627e+04  3.9025508939074665e+04  4.4623084554761277e+04  4.1014699074943215e+04  4.4529871742827614e+04  4.1175072918542544e+04  3.8402054669710960e+04  3.3530423713891760e+04  3.5784904966539842e+04  3.6830829110167833e+04  9.1102298560053332e+03  6.4536376350549699e+03  4.2571396880178181e+03  3.8263472397368227e+04  6.6710470431484546e+03  2.7786800107975841e+03  3.7518063319698781e+03  3.2308419466699424e+03  2.0370554414399940e+04  3.7570353161788051e+04  3.2752259656040980e+04  4.0283504677057766e+02  2.8692395005771981e+04  1.5005692680652633e+03  4.3895706163934419e+03  2.4294718009467913e+04  2.5160501896486358e+03  1.7274289391072907e+04  3.3754024405034826e+04  4.4350596985179960e+04  2.7378984041055606e+04  3.7018695427633182e+04  3.2628574884288419e+03  2.3118841565923190e+03  4.7322033869510860e+03  5.2231158364798011e+03  9.7446771541343151e+03  9.6994352293630418e+03  1.1469367984731160e+04  1.2170711124845791e+04  8.0656110481642918e+03  8.2485695110290599e+03  2.0151861399946243e+04  1.1023373846673807e+04  1.9542060392898036e+03  4.2514928869261712e+03  2.8649207466706688e+04  2.4978400126219043e+04  2.3714508310410252e+04  1.9643820075648029e+04  2.9294442140973712e+04  2.3489956467693301e+04  3.1592961483805364e+04  3.1485653608879598e+04  3.7154625341599749e+04  3.4752315647870048e+04  3.3974551070413887e+04  1.5023876018619721e+04  7.5957460761070606e+03  1.3454053727346287e+04  4.4395506344974223e+04  1.5676928743275877e+04  8.6159168224963869e+03  3.8798913612618097e+04  4.4376571690700279e+04  3.2320119121102925e+04  4.3904976202224234e+03  2.8535671799719134e+03  5.1983980727807120e+03  7.4920852582271107e+02  1.0591290223991791e+03  1.2618048965792480e+03  1.1361893684412780e+03  8.8573720642860246e+02  6.9077671270776989e+02  6.2078853607841677e+02  1.8126485158679659e+03  2.0524396920016561e+03  1.9907254167398175e+03  1.8151756993136357e+03  1.8390647726870000e+03  1.6567036691093570e+03  1.6369457961133207e+03  5.1897877993553657e+03  4.9390734603825467e+03  4.8996298381058286e+03  5.5583940264927478e+03  5.8720588349024192e+03  5.6700559264958420e+03  5.7352616978573888e+03  2.6899875750711385e+03  2.9279724071197561e+03  3.0520744171072288e+03  3.0877301880074797e+03  3.2156816135027652e+03  3.2429047112056205e+03  2.8891883421890557e+03  2.4180097386982470e+03  2.6220498379284390e+03  3.1727762067279218e+03  3.0406820645727639e+03  2.6893601569902230e+03  2.7199165424066114e+03  2.4552772181814175e+03  7.1044124392051590e+03  7.4821329908257412e+03  8.6318599009509035e+03  8.7007081087818588e+03  7.9677160461945587e+03  8.7610653502758450e+03  7.7677853027145247e+03  1.1845387562085578e+04  1.0426027938293872e+04  9.9506244498303531e+03  1.1658407642673099e+04  1.2665001945600405e+04  1.2200894876581442e+04  1.2085390866747899e+04  5.3330530705550009e+03  5.0821216217697147e+03  5.1060562033598871e+03  5.8821947099804502e+03  6.3942930850981011e+03  5.6418428921899849e+03  5.4617785257846217e+03  9.2188613553994965e+03  8.9670889655307783e+03  8.9838259365485992e+03  7.9436120493326898e+03  8.7269359903829845e+03  8.5995540752521629e+03  9.2836364538542766e+03  1.2262279995385608e+04  1.2177048465092343e+04  1.3402900207975155e+04  1.3310997329241061e+04  1.1525711916123659e+04  1.2098364451574394e+04  1.2311520402643773e+04  1.7851759274428161e+04  1.7768854136347909e+04  1.7271531024370048e+04  1.7309217077981102e+04  1.5292219838176572e+04  1.5198814071046123e+04  1.6664650892982405e+04  2.4084860410551028e+04  2.2450714327950813e+04  2.2891401313182738e+04  2.2859801463803909e+04  2.3856859293723945e+04  2.2623822730983888e+04  2.2959631794148710e+04  1.5350637974136482e+04  1.4536074158743493e+04  1.7716974572418487e+04  1.7995396009652774e+04  1.6685337671780468e+04  1.8511419141256247e+04  1.6028513848125676e+04  2.1427260056270294e+04  2.2352324238487978e+04  2.3516425890346341e+04  2.1709911330792536e+04  2.3568354258235111e+04  2.3783865713210525e+04  2.1097129509367031e+04  2.9645097139875263e+04  2.8230674611831699e+04  2.7470713735567751e+04  2.9780470664140947e+04  2.8064140534418511e+04  2.7976835512699578e+04  2.8394969968223697e+04  3.4896648291980047e+04  3.4572153648888117e+04  3.6414890752193940e+04  3.6532264180361111e+04  3.4164657674021313e+04  3.3166257399637449e+04  3.3487540021154768e+04  2.4705784320196111e+04  2.9721210692774148e+04  2.6532612435470437e+04  2.9337711260261589e+04  2.6057685934697543e+04  2.5884006020483048e+04  3.0329806042168344e+04  3.7837285589958068e+04  3.5055746051788294e+04  3.3640067139395796e+04  3.4766133883133640e+04  3.2483158688135318e+04  3.3734245706539732e+04  3.5562532013591823e+04  4.1297875164564270e+04  3.8939237197691284e+04  3.7055429703766436e+04  3.9271997758848811e+04  3.7579443206717457e+04  3.3075773350206153e+04  3.6085747645414609e+04  3.7329022893899819e+04  3.7251063982535008e+04  3.9768964412563204e+04  3.8885468198556242e+04  3.7536844512072872e+04  4.1196061245907455e+04  3.5874959222356847e+04  1.0436277664956083e+03  2.1722749555457290e+03  5.9772177209164865e+03  3.3328467267020355e+03  3.5792305303057269e+03  1.3972174551101722e+04  1.0123139784803509e+04  1.4772833521490376e+04  6.1698834095143284e+03  9.1052373690086861e+03  2.0933334797223644e+04  1.7940555251978003e+04  2.3510002038381932e+04  2.6404781707473205e+04  3.4261494980066644e+04  4.1521499925541575e+04  4.0850594613833615e+04  2.8605047452525436e+04  4.8861019311659664e+04  4.6161438794227885e+04  8.5541796352974347e+02  1.2504314574026264e+03  1.3058083622888153e+03  9.4684959049164729e+02  1.7982443367108556e+03  1.8762549880419299e+03  1.9948738158448587e+03  2.2699492254911352e+03  2.3263467775743225e+03  2.2208544044018281e+03  1.6964271779621988e+03  2.0364224496951476e+03  1.7674542653990723e+03  9.6174360876489914e+02  2.4583246309542924e+03  2.8020911504040828e+03  3.0272492575758743e+03  1.9394597154958210e+03  2.8580106807544403e+03  1.2400627892666921e+03  2.3993236722398988e+03  1.8333012378506833e+03  8.6481787120448678e+02  1.0416549249514935e+03  8.8794003261672844e+02  8.1929119962777963e+02  6.0972990674589289e+02  9.7651658440921142e+02  3.2063893852026713e+03  1.2805567352923260e+03  1.3871485918603294e+03  1.5038694375455245e+03  2.6339385681555900e+03  1.6371651385501152e+03  3.0491421525025630e+03  2.7457601135872674e+03  2.1574600350753817e+03  1.5190044672149713e+03  1.3598539756123553e+03  1.1175340653267565e+03  1.9055271181044145e+03  2.0894572995159979e+03  1.3077146739477482e+03  1.8354236182101470e+03  1.7204574325019971e+03  3.1401567168459187e+03  3.7275588851591547e+03  3.5080921839463836e+03  2.1163275629797272e+03  2.7525373640753842e+03  2.7346836240671137e+03  4.6121948283781803e+03  4.0114780834972144e+03  3.8233851994582824e+03  4.8861357578967054e+03  4.9041701342977904e+03  5.1984571102000091e+03  4.9553754748405754e+03  4.1994661422077625e+03  3.6847678513396031e+03  3.6123897106356158e+03  3.0302876542879872e+03  2.8441934914852518e+03  3.6574156550610469e+03  3.0755495131239513e+03  3.3141044225542637e+03  4.1752787994419014e+03  2.7631158828013549e+03  2.6284208732879947e+03  3.9920207425270564e+03  2.7015490888396480e+03  2.1507574512363776e+03  1.6104842398613007e+03  1.4061689808736812e+03  3.0782719810878411e+03  2.5259742129965825e+03  3.4157996231085349e+03  2.3603425106619734e+03  2.3620586843698375e+03  2.8050479278924136e+03  2.3773652534056159e+03  2.9244598232726153e+03  2.5609467291071664e+03  2.6927239408191381e+03  2.4419526838331135e+03  4.4668607477398073e+03  4.9241961403727901e+03  3.3833172206335767e+03  3.3241172122868606e+03  4.4618349906781950e+03  4.0010698325002354e+03  3.1724499371394913e+03  4.1149746764247484e+03  3.2591072111723402e+03  4.0242479919925559e+03  3.7433758513169396e+03  2.8697743628639023e+03  3.7237300282225069e+03  3.5362490281291184e+03  9.4909365375612413e+02  1.2734133451854896e+03  2.2810975799782022e+03  1.5208702917218468e+03  1.7633844066177876e+03  6.4027282383334853e+02  1.2781183011070750e+03  4.9818958590300344e+03  5.8802717837057990e+03  5.2901965559800246e+03  5.3433347872602153e+03  4.2158140671865331e+03  5.8279644330652172e+03  6.1072422021607626e+03  6.8926804918846128e+03  5.0765628915596526e+03  6.0521016041529274e+03  7.0134521185168369e+03  6.2705512803724814e+03  6.0316169340277111e+03  7.5149412328309436e+03  8.1923430804385753e+03  5.4885569037182258e+03  6.3859672229488115e+03  4.0128252661888791e+03  3.4199302208942531e+03  3.4089495567313647e+03  3.6162773554204523e+03  4.1534747289472407e+03  5.1472698292590248e+03  5.8728999403951775e+03  4.4132855673124177e+03  3.6938478053886060e+03  3.3176226249332135e+03  2.7484905154466778e+03  3.1578627902915273e+03  3.0793275818534717e+03  4.1659011323356253e+03  3.8475087388289694e+03  4.9172935221289690e+03  5.3704293935539717e+03  4.8409773066121452e+03  4.0102689824678805e+03  4.5686038306258442e+03  6.2910622479509821e+03  7.3698681091368671e+03  5.9275092388107823e+03  4.1286904564122424e+03  6.2647114822304893e+03  3.8989904926719937e+03  5.5483378854216980e+03  4.6553267300177213e+03  5.0125454745409870e+03  4.6439634943316405e+03  5.5619997101882072e+03  4.0072247896760246e+03  4.0143184382165850e+03  7.3010709915319576e+03  7.6401558325872156e+03  5.2729270013743508e+03  5.7115755471054217e+03  6.6467519448559187e+03  6.3698974619891396e+03  6.3034338959274119e+03  6.7211763959109858e+03  6.1191870996679172e+03  4.3508031012986185e+03  5.8014257634154665e+03  7.1336297929236298e+03  8.6176081532601802e+03  7.9356143756190049e+03  7.3354209115841923e+03  6.4216508032619995e+03  9.5955706574366886e+03  9.1150366535017401e+03  8.3405289712660142e+03  9.8109998454456600e+03  8.6286608285718103e+03  7.8509508921313309e+03  1.0120714733041772e+04  1.1533219428259707e+04  1.0228788514052692e+04  7.2220396823617357e+03  8.0768707304289746e+03  6.3955237073301041e+03  6.9473286364372261e+03  6.1047649952839256e+03  9.1636641007006001e+03  7.8940162410400962e+03  1.1680259882249869e+04  1.0381767932903635e+04  9.7506304896349993e+03  8.5775042360550015e+03  7.0736652000340700e+03  8.4506636976766040e+03  7.0935805253386097e+03  1.1483878278491025e+04  9.3211558770137017e+03  1.0160955498807527e+04  6.9590445280941431e+03  7.0516644113298889e+03  3.4280839497609600e+03  3.7296961741373307e+03  3.5791836860076996e+03  4.3174189099031400e+03  4.7638693434215511e+03  4.7488336996255985e+03  4.7104803273832304e+03  5.1287585676716481e+03  4.4284234107618768e+03  3.7391426292050496e+03  3.5807109557611975e+03  3.9902337272909654e+03  3.4369943749275890e+03  3.7906371633974009e+03  2.8435170104921635e+03  2.5580312733648607e+03  2.9566071397852302e+03  1.2202232671224083e+04  1.3123754526701094e+04  1.2269314676824237e+04  1.3003662852995880e+04  1.5082418540320481e+04  1.4250169942199687e+04  1.0922221453527773e+04  5.4873011133488899e+03  8.3539507155763476e+03  9.9428108226096592e+03  9.6827973366528986e+03  1.1091388902802264e+04  9.0629616034905030e+03  1.0336990485865537e+04  1.2816023516003088e+04  1.5082730238938808e+04  1.5119364349102330e+04  1.4144364965028035e+04  1.3391867852368487e+04  1.5059840191110197e+04  1.4356430288071346e+04  1.1676567683318061e+04  1.1659681558369408e+04  1.1268416944703831e+04  1.2322737493198694e+04  1.4566300426069534e+04  9.3685441255269434e+03  3.9348597844529472e+03  2.7416447801678896e+03  2.0354062999963994e+03  2.0263117479304806e+03  2.1582610915156902e+03  2.1109802841832879e+03  2.0400156505596299e+03  1.7091362061490513e+03  2.4633107577099590e+03  2.7719640801057940e+03  2.1012294732170658e+03  2.8638630432174373e+03  2.5125236378825057e+03  2.7221063784139328e+03  2.7233625571775347e+03  3.7083827758916468e+03  3.7041465169137068e+03  6.2991196656812681e+03  5.8308273783503118e+03  5.2608309473602394e+03  6.1548128561076483e+03  4.5203843973677585e+03  5.3280562359964579e+03  7.4142746673390502e+03  6.6246900724845982e+03  6.8455855740957813e+03  4.9817518587058667e+03  6.7605842579193104e+03  6.8427646118264001e+03  7.5791116168906901e+03  6.5890742137284560e+03  6.0715627571319965e+03  6.1946669626495805e+03  6.4338993781617082e+03  7.3883528629273233e+03  5.6920522783198003e+03  6.6256766171056543e+03  7.4713485266097250e+03  7.0843275889286824e+03  7.2186444677817635e+03  5.9019285017405136e+03  5.7817694659871277e+03  5.3829208788958049e+03  5.2679926907295940e+03  4.7810042563428096e+03  7.7181829431702790e+03  4.4322358741129938e+03  4.7861726715889299e+03  5.8119651435807691e+03  7.8023265987715804e+03  7.9612105087803229e+03  6.2865416080337109e+03  6.7563457809187412e+03  7.4497153805394064e+03  6.4772485043078123e+03  7.7304203460651042e+03  8.5569132069146563e+03  8.2691333138054870e+03  1.1292608286683770e+04  8.3519778301277220e+03  9.3620289889684973e+03  7.2622794459077468e+03  9.9070103036486653e+03  8.4946442248278217e+03  1.0035739525235096e+04  9.2584505731415557e+03  8.1627723043635224e+03  1.6717607525926462e+04  1.3939373120360957e+04  1.6099908236541902e+04  1.7369838001487449e+04  1.7265129208172151e+04  1.4127621787831737e+04  1.2287417398377138e+04  1.2947724001708708e+04  1.2070904874896516e+04  1.8519889093651465e+04  1.5531535700134491e+04  1.6835623718607538e+04  1.4110897245332377e+04  1.9256316541123757e+04  1.4092214518675093e+04  1.6737058794576787e+04  1.8324141211992541e+04  1.7622302364674371e+04  1.4923558972439088e+04  1.5924472455365738e+04  1.8060612564254596e+04  1.4808962719572752e+04  1.8108141999170020e+04  1.9082629899092914e+04  1.9503323041381718e+04  1.5919584866479314e+04  1.9834522696721346e+04  1.6730705770835270e+04  1.8220535637952751e+04  8.5693063456017771e+03  9.3855799782111189e+03  1.1083783447459009e+04  1.1429537183516892e+04  1.0706691492382683e+04  7.8660142361283897e+03  7.5994403701528054e+03  9.2465635769211513e+03  7.7353964525309611e+03  6.8512472926134251e+03  7.7382136883600442e+03  8.9642123340337657e+03  8.3116805792882005e+03  1.0026688064599228e+04  8.4695743465036812e+03  1.0545400692247951e+04  1.0422415634051307e+04  8.4358753795465182e+03  8.7536374152282588e+03  8.6546322929720700e+03  7.9807607881511412e+03  1.0562636737085624e+04  8.2122151027819818e+03  9.7143355960690460e+03  1.0223407565136227e+04  8.7076019101859711e+03  1.1248290354623314e+04  9.2993576397207526e+03  7.7173143747054328e+03  9.4276323017184459e+03  8.2117773827857472e+03  6.5307013253932182e+03  7.1570911775988043e+03  2.2035337603620021e+04  2.0772480772773310e+04  1.9958937210478911e+04  1.9418386578469708e+04  2.1383492312878698e+04  2.1738469545283082e+04  2.0810628693477091e+04  1.8796063387460952e+04  2.1077126725595361e+04  1.7698022449408621e+04  2.1067583645957537e+04  2.1411418589858400e+04  1.7905708083021840e+04  1.9945319175449469e+04  2.6239563136244742e+04  1.7883707633507329e+04  1.9804087241306268e+04  2.5782599408336220e+04  2.2891438242439770e+04  2.3414022766227539e+04  2.3530354017275247e+04  2.2207614747534772e+04  2.5206565155772794e+04  2.2641365893967763e+04  1.6500514611932849e+04  2.4968371343393246e+04  1.7580722135723528e+04  1.8970169146284807e+04  1.9584523226946556e+04  2.3459333736114346e+04  1.8988803983127462e+04  1.1101202019318322e+04  1.1603363780372723e+04  1.1966854429778061e+04  1.2130461386467046e+04  1.7435445555610859e+04  1.1234500596042726e+04  1.0712525134196467e+04  1.2957958422769050e+04  1.0284297416507179e+04  1.1136002094379803e+04  9.7526223769148146e+03  1.3136863368280006e+04  1.3095016885909003e+04  1.4512819631326260e+04  1.6878987249000504e+04  1.2089771590603539e+04  1.1785855355118178e+04  1.3616760811194215e+04  1.0316959995394098e+04  1.2682532111492037e+04  1.2430010221665507e+04  1.5222963366057476e+04  1.2513611971598191e+04  1.2499023975692386e+04  1.0571436269768572e+04  1.1528861039617388e+04  1.0746354016418683e+04  1.2689311085250252e+04  9.8452092690758309e+03  1.0616092710324117e+04  1.1853473482422127e+04  1.0686447780304103e+04  1.1378667139597732e+04  9.6356541410346181e+03  1.0690272421023988e+04  1.1233838657019123e+04  1.0381956184843533e+04  9.7632172332804730e+03  1.1080207909793735e+04  1.2197842576815987e+04  1.3312890562443476e+04  1.0877479040989319e+04  1.0994921986838199e+04  1.2178802862161108e+04  9.5048957328912038e+03  2.1440322154935209e+04  2.6419409030026105e+04  1.9327875344495260e+04  2.2836360179726325e+04  2.7674734206494333e+04  2.3178480787635333e+04  2.6655527365687150e+04  2.5436695773189982e+04  1.8877178795400796e+04  2.5078545644818580e+04  1.9383129016226434e+04  2.6947686023917235e+04  2.0252331253097011e+04  1.7407723879244026e+04  2.0229250438983679e+04  1.6690004287372998e+04  1.7142365773426576e+04  1.8103995160576644e+04  1.9261669813662611e+04  1.4594177914969554e+04  1.6606228635368538e+04  1.3696601118064948e+04  1.3076140012825861e+04  1.5100422274636290e+04  2.2853810405088687e+04  2.0494133476066883e+04  1.6706380445424045e+04  1.6070745990299678e+04  1.2886482919742197e+04  1.3922659302115526e+04  1.7553658112387155e+04  1.8158891447056238e+04  1.6545408640295114e+04  1.8800754658203961e+04  1.4743827068869379e+04  1.3863177799725308e+04  1.3253669490907825e+04  1.3298380838859235e+04  1.3228154481096084e+04  1.2676053763041718e+04  1.3590919559515673e+04  1.2685303390026365e+04  2.1327038044599918e+04  2.3912608657038443e+04  2.0399926354415071e+04  1.4811961396422235e+04  1.3388043342055546e+04  1.4828584386451574e+04  1.4239668160812196e+04  1.6170075649876118e+04  1.3857991290168809e+04  1.4829961252396031e+04  2.0755585238653926e+04  1.5049353630724252e+04  1.8190917675787863e+04  1.5179115537086003e+04  1.9479567145972745e+04  1.8431733311254480e+04  1.5364928480428847e+04  1.4620490450334022e+04  1.9689565411906879e+04  2.0265703882134716e+04  1.5448424927058952e+04  1.9993256473374291e+04  1.1792461557649493e+04  2.6411112313682595e+04  2.6167058765683261e+04  2.4175162113204486e+04  2.6354177267705461e+04  2.2618535420768658e+04  2.2785863938395687e+04  2.9913716398784229e+04  2.5104477075625480e+04  2.2352222823956650e+04  2.7060642237034208e+04  2.6454948741958811e+04  2.4274122285569269e+04  2.6476083717924630e+04  2.1532780092895031e+04  2.8705215604723522e+04  2.6965552879028157e+04  2.9483439948332223e+04  2.7206603154789595e+04  2.5380193692187433e+04  2.5791814532614269e+04  2.6991467601586792e+04  2.3782388319642734e+04  3.0947229291863259e+04  2.8572929675899442e+04  2.9543719319038035e+04  2.9855915799578517e+04  2.7305963201314240e+04  3.4988574870748023e+04  2.6441025967426489e+04  2.9085225847704416e+04  2.9207095157739059e+04  2.9049683618283896e+04  2.8269169515768950e+04  2.6776954521173404e+04  3.0387045075886410e+04  2.0482800406152808e+04  2.7335545795069600e+04  2.5681002265060000e+04  2.3227810495976693e+04  2.8821890858369054e+04  2.3914186123073883e+04  2.6220766756452424e+04  3.0940371544863359e+04  3.0576877830899943e+04  3.0405364450819048e+04  3.1139879644091321e+04  3.1800998937422504e+04  3.3176035338020352e+04  2.5264721046208899e+04  2.7711861587249401e+04  2.1619840799245860e+04  2.3252425284099663e+04  2.5804011857077698e+04  2.6817824279843528e+04  2.8280426510581368e+04  2.1502553138706131e+04  2.0802052707407227e+04  2.4736715295248123e+04  2.4467403401739833e+04  2.2239717228773763e+04  2.0883400861178721e+04  1.8235150411295857e+04  1.9399734364910586e+04  2.2629253860369030e+04  2.6087275373623885e+04  2.4595847270806898e+04  2.8847394732917386e+04  2.3237740873793326e+04  2.2501973699828042e+04  2.0944525875340347e+04  2.3129390531767222e+04  2.9324868360759861e+04  2.6303812825731638e+04  2.7262631218130984e+04  3.1837043890572390e+04  2.9685126466003054e+04  2.6585482889961786e+04  2.9451466725734070e+04  2.9875352733817068e+04  2.4313408331337465e+04  1.8893259245460933e+04  2.3921453203495792e+04  2.3211805811880222e+04  1.9739879749495438e+04  1.8886228150698465e+04  2.4783262169002173e+04  2.0676857418959655e+04  2.8405037338638020e+04  2.0224477894947893e+04  2.5957466970880116e+04  2.7782574815393233e+04  1.9368271703103270e+04  2.4564125664437084e+04  2.6482524217738610e+04  2.1098728785065770e+04  2.1190825946833807e+04  2.6424274113216768e+04  1.9078799457113331e+04  3.0953184503192409e+04  3.4556284507263888e+04  2.7938042984881293e+04  3.2106179927218684e+04  2.6816165265428204e+04  2.7220130838318917e+04  2.5087455798311730e+04  2.8321561759913755e+04  3.1053448307023398e+04  2.8262437226255250e+04  3.1772820137741386e+04  2.6491971195776699e+04  3.2397296758568882e+04  3.0929622383605682e+04  3.5999762428458795e+04  2.8035656726837136e+04  3.0101251718829648e+04  3.9866175972495890e+04  2.5702378650406448e+04  2.6333235203880282e+04  3.1055955293478637e+04  3.0116446295601276e+04  2.9132067098992920e+04  3.3345509628491796e+04  3.9270249903200180e+04  3.2171043471588710e+04  3.3389691795094477e+04  3.5460068525449366e+04  3.6403047411996384e+04  2.7676114136874166e+04  3.3941750699149576e+04  3.7099554206321518e+04  3.2673746039489182e+04  3.1242392194854307e+04  3.0124278693822784e+04  3.7944699253733808e+04  3.1965317571801144e+04  3.2139099767773947e+04  3.5970552778470519e+04  3.3573509197927044e+04  3.1777770782254647e+04  2.8177176703801459e+04  2.9847209455111297e+04  2.5856795856962188e+04  2.9585617004563654e+04  2.8049778170718178e+04  3.9408469732676931e+04  3.0252720672381543e+04  3.4867163830937410e+04  3.0978444210825241e+04  2.5444718689062105e+04  2.9793860270104869e+04  3.6184855005791615e+04  3.0683995939730881e+04  3.2860786447482118e+04  2.6222435257213092e+04  1.9867841908622278e+04  3.4140044330720419e+04  1.8543375442642689e+04  2.5446751612522916e+04  2.7599175748369456e+04  2.2533131674189968e+04  2.6198546459758789e+04  2.5906464080715763e+04  2.2823202389005273e+04  2.3822992924276867e+04  2.2588154710558658e+04  3.0559875744188215e+04  2.1084964725368125e+04  3.3911794275952423e+04  2.6791706194436349e+04  2.7474952695852127e+04  4.2221300652233513e+04  3.7262861730358803e+04  3.4120630203697627e+04  2.8305113870371497e+04  3.6582193001704713e+04  3.1976067446879228e+04  2.6654629521953349e+04  3.0384775952982178e+04  3.0451665444101109e+04  3.1170817904596741e+04  3.3921809904304013e+04  3.1059553182898504e+04  3.0534642868479736e+04  3.7153037904758574e+04  3.3209541890344168e+04  4.0441733731764252e+04  4.1772017113807226e+04  3.5703135288803751e+04  2.5096855852079923e+04  2.9229859656155379e+04  2.9071360654444208e+04  4.1454016972132216e+04  2.6013381405763546e+04  2.6537170462854825e+04  3.1016427824203030e+04  2.8075827488442159e+04  2.6136880488954957e+04  3.1177685771826440e+04  3.1355066588691021e+04  2.7174409347513141e+04  4.0773155124685327e+04  2.9651199589074185e+04  3.2575373159595852e+04  3.4777007206177790e+04  3.4012413505955687e+04  4.1796079077120579e+04  3.5416070691635032e+04  3.5330179207052250e+04  3.0243909416726266e+04  2.7353393874031906e+04  2.9147230181483530e+04  3.0691798266451806e+04  3.3622921535998830e+04  2.6660827148606666e+04  3.3680089610195959e+04  3.4296699046021575e+04  3.2833312400537186e+04  3.1665863038212890e+04  3.8523181839416524e+04  2.5806906736150806e+04  3.5429039581049219e+04  3.3126220829139507e+04  3.8927783354161707e+04  2.9510220810556788e+04  3.3048976935582265e+04  3.7776307628046983e+04  3.8007089055358294e+04  3.7627255930242427e+04  3.2035408006037997e+04  2.5406569605620323e+04  4.3153968994508155e+04  </DataArray> 
</PointData> 
</Piece>
</UnstructuredGrid>
</VTKFile>